Y-Y-N-CN-SCN
   1.000
    3.6699039736895083    0.0000000000000000    0.0000000000000000
   -1.8349519868447541    3.1782300706809079    0.0000000000000000
    0.0000000000000000    0.0000000000000000   27.8724736156770661
   C    N    S    Y 
    2    3    1    2
Direct
    0.3333329854322145    0.6666669831836742    0.6340288785430142     C1
    0.6666669847440475    0.3333329859851446    0.3656021103403664     C2
    0.0000000000000000    0.0000000000000000    0.5355361132360843     N1
    0.3333329854322145    0.6666669831836742    0.6771007796402437     N2
    0.6666669847440475    0.3333329859851446    0.3228992203597562     N3
    0.6666669847440475    0.3333329859851446    0.4258254469504241     S1
    0.3333329854322145    0.6666669831836742    0.4878202367303924     Y1
    0.6666669847440475    0.3333329859851446    0.5814642244471999     Y2
