Sc-Sc-N-OCN-OCN
   1.000
    3.2926429485561051    0.0000000000000000    0.0000000000000000
   -1.6463214742780525    2.8515124390393463    0.0000000000000000
    0.0000000000000000    0.0000000000000000   27.9653733538911240
   C    N    O    Sc
    2    3    2    2
Direct
    0.3333329854322145    0.6666669831836742    0.6357000827023448     C1
    0.6666669847440474    0.3333329859851446    0.3642999168377813     C2
    0.0000000000000000    0.0000000000000000    0.5000000308115469     N1
    0.3333329854322145    0.6666669831836742    0.6781734366243413     N2
    0.6666669847440474    0.3333329859851446    0.3218265633756587     N3
    0.3333329854322145    0.6666669831836742    0.5878415475507421     O1
    0.6666669847440474    0.3333329859851446    0.4121584524492584     O2
    0.3333329854322145    0.6666669831836742    0.4568860144593436    Sc1
    0.6666669847440474    0.3333329859851446    0.5431139850807742    Sc2
