Ti-Ti-C-NO-PO
   1.000
    3.1543062907583654    0.0000000000000000    0.0000000000000000
   -1.5771531453791827    2.7317093791089291    0.0000000000000000
    0.0000000000000000    0.0000000000000000   26.0607005983711133
   C    N    O    P    Ti
    1    1    2    1    2
Direct
    0.0000000000000000    0.0000000000000000    0.5149918397995518     C1
    0.3333329854322146    0.6666669831836742    0.6045229908973790     N1
    0.3333329854322146    0.6666669831836742    0.6546524155777096     O1
    0.6666669847440473    0.3333329859851446    0.3453475844222904     O2
    0.6666669847440473    0.3333329859851446    0.4025282776804035     P1
    0.3333329854322146    0.6666669831836742    0.4742509523348188    Ti1
    0.6666669847440473    0.3333329859851446    0.5662593425460551    Ti2
