Hf-Hf-N-Cl-H
   1.000
    3.3134184424338220    0.0000000000000000    0.0000000000000000
   -1.6567092212169110    2.8695045445028611    0.0000000000000000
    0.0000000000000000    0.0000000000000000   23.0854557251014505
   Cl   H    Hf   N 
    1    1    2    1
Direct
    0.3333329854322145    0.6666669831836742    0.6101441484555987    Cl1
    0.6666669847440474    0.3333329859851446    0.3898558515444013     H1
    0.3333329854322145    0.6666669831836742    0.4326341924443971    Hf1
    0.6666669847440474    0.3333329859851446    0.5319992511949554    Hf2
    0.0000000000000000    0.0000000000000000    0.4826728179059740     N1
