Ti-Ti-C-PO-PO
   1.000
    3.1089478059505518    0.0000000000000000    0.0000000000000000
   -1.5544739029752759    2.6924277789820228    0.0000000000000000
    0.0000000000000000    0.0000000000000000   27.0895436187240151
   C    O    P    Ti
    1    2    2    2
Direct
    0.0000000000000000    0.0000000000000000    0.5000000356775359     C1
    0.3333329854322145    0.6666669831836742    0.6677684893229692     O1
    0.6666669847440473    0.3333329859851446    0.3322315106770308     O2
    0.3333329854322145    0.6666669831836742    0.6127314525768854     P1
    0.6666669847440473    0.3333329859851446    0.3872685474231148     P2
    0.3333329854322145    0.6666669831836742    0.4564784478433234    Ti1
    0.6666669847440473    0.3333329859851446    0.5435215516241668    Ti2
