Sc-Sc-C-NCS-O
   1.000
    3.3431800514987682    0.0000000000000000    0.0000000000000000
   -1.6715900257493841    2.8952788539947361    0.0000000000000000
    0.0000000000000000    0.0000000000000000   25.6999318052427199
   C    N    O    S    Sc
    2    1    1    1    2
Direct
    0.0000000000000000    0.0000000000000000    0.4425861924618382     C1
    0.3333329854322145    0.6666669831836742    0.5891857242955978     C2
    0.3333329854322145    0.6666669831836742    0.5407812154716081     N1
    0.6666669847440474    0.3333329859851446    0.3501954817702677     O1
    0.3333329854322145    0.6666669831836742    0.6498045182297323     S1
    0.3333329854322145    0.6666669831836742    0.3770213539184893    Sc1
    0.6666669847440474    0.3333329859851446    0.4886588609588797    Sc2
