Hf-Hf-C-Cl-OCN
   1.000
    3.3742561510213638    0.0000000000000000    0.0000000000000000
   -1.6871280755106819    2.9221915456663776    0.0000000000000000
    0.0000000000000000    0.0000000000000000   26.0341681293711744
   C    Cl   Hf   N    O 
    2    1    2    1    1
Direct
    0.0000000000000000    0.0000000000000000    0.5396220704414343     C1
    0.6666669847440474    0.3333329859851445    0.3913174139827714     C2
    0.3333329854322146    0.6666669831836742    0.6543004579490903    Cl1
    0.3333329854322146    0.6666669831836742    0.4954967564798297    Hf1
    0.6666669847440474    0.3333329859851445    0.5854110431140347    Hf2
    0.6666669847440474    0.3333329859851445    0.3456995420509096     N1
    0.6666669847440474    0.3333329859851445    0.4427580840039482     O1
