Y-Y-N-SCN-F
   1.000
    3.6181247328472694    0.0000000000000000    0.0000000000000000
   -1.8090623664236347    3.1333879327112415    0.0000000000000000
    0.0000000000000000    0.0000000000000000   26.4143282474565702
   C    F    N    S    Y 
    1    1    2    1    2
Direct
    0.3333329854322145    0.6666669831836742    0.6142215439963317     C1
    0.6666669847440473    0.3333329859851446    0.3407241674172278     F1
    0.0000000000000000    0.0000000000000000    0.4314801546454700     N1
    0.3333329854322145    0.6666669831836742    0.6592758325827723     N2
    0.3333329854322145    0.6666669831836742    0.5506575622117842     S1
    0.3333329854322145    0.6666669831836742    0.3852648403582916     Y1
    0.6666669847440473    0.3333329859851446    0.4848619759419698     Y2
