Zr-Zr-C-Br-OCN
   1.000
    3.4583511522892514    0.0000000000000000    0.0000000000000000
   -1.7291755761446257    2.9950199530823824    0.0000000000000000
    0.0000000000000000    0.0000000000000000   26.2584457865461509
   Br   C    N    O    Zr
    1    2    1    1    2
Direct
    0.3333329854322145    0.6666669831836742    0.6572531339759924    Br1
    0.0000000000000000    0.0000000000000000    0.5357743295139419     C1
    0.6666669847440475    0.3333329859851447    0.3880105805910903     C2
    0.6666669847440475    0.3333329859851447    0.3427468660240076     N1
    0.6666669847440475    0.3333329859851447    0.4388542255627039     O1
    0.3333329854322145    0.6666669831836742    0.4910838434287670    Zr1
    0.6666669847440475    0.3333329859851447    0.5821313648980577    Zr2
