Sc-Sc-C-NCO-O
   1.000
    3.3094257553753414    0.0000000000000000    0.0000000000000000
   -1.6547128776876707    2.8660467760942869    0.0000000000000000
    0.0000000000000000    0.0000000000000000   25.4084907202379746
   C    N    O    Sc
    2    1    2    2
Direct
    0.0000000000000000    0.0000000000000000    0.4484600427631149     C1
    0.3333329854322145    0.6666669831836742    0.5983831621867923     C2
    0.3333329854322145    0.6666669831836742    0.5493788756948929     N1
    0.3333329854322145    0.6666669831836742    0.6457876975419299     O1
    0.6666669847440474    0.3333329859851446    0.3542123024580701     O2
    0.3333329854322145    0.6666669831836742    0.3817373209515209    Sc1
    0.6666669847440474    0.3333329859851446    0.4957376866382693    Sc2
