Sc-Sc-C-OCl-Br
   1.000
    3.4688912735331918    0.0000000000000000    0.0000000000000000
   -1.7344456367665959    3.0041479658304633    0.0000000000000000
    0.0000000000000000    0.0000000000000000   25.1398012144197907
   Br   C    Cl   O    Sc
    1    1    1    1    2
Direct
    0.6666669847440474    0.3333329859851446    0.3579980574722184    Br1
    0.0000000000000000    0.0000000000000000    0.4796825995014254     C1
    0.3333329854322145    0.6666669831836742    0.6420019425277816    Cl1
    0.3333329854322145    0.6666669831836742    0.5720189244043057     O1
    0.3333329854322145    0.6666669831836742    0.4321085463615596    Sc1
    0.6666669847440474    0.3333329859851446    0.5304018805155557    Sc2
