Zr-Zr-C-CN-O
   1.000
    3.3442281673860794    0.0000000000000000    0.0000000000000000
   -1.6721140836930397    2.8961865490062508    0.0000000000000000
    0.0000000000000000    0.0000000000000000   24.3356291264385192
   C    N    O    Zr
    2    1    1    2
Direct
    0.0000000000000000    0.0000000000000000    0.4671301526432075     C1
    0.3333329854322145    0.6666669831836742    0.5805848674955915     C2
    0.3333329854322145    0.6666669831836742    0.6301718787199015     N1
    0.6666669847440475    0.3333329859851446    0.3698281212800984     O1
    0.3333329854322145    0.6666669831836742    0.4086119021546077    Zr1
    0.6666669847440475    0.3333329859851446    0.5195014226750128    Zr2
