Y-Y-N-PO-H
   1.000
    3.4977143910781865    0.0000000000000000    0.0000000000000000
   -1.7488571955390932    3.0291095178585823    0.0000000000000000
    0.0000000000000000    0.0000000000000000   25.3194177530722051
   H    N    O    P    Y 
    1    1    1    1    2
Direct
    0.6666669847440474    0.3333329859851446    0.3554584109228956     H1
    0.0000000000000000    0.0000000000000000    0.4497345399062144     N1
    0.3333329854322145    0.6666669831836743    0.6445415890771045     O1
    0.3333329854322145    0.6666669831836743    0.5854612565462887     P1
    0.3333329854322145    0.6666669831836743    0.3967046931485580     Y1
    0.6666669847440474    0.3333329859851446    0.5016478899868410     Y2
