Zr-Zr-C-F-H
   1.000
    3.3562789893559022    0.0000000000000000    0.0000000000000000
   -1.6781394946779511    2.9066228669687835    0.0000000000000000
    0.0000000000000000    0.0000000000000000   22.7761984803941928
   C    F    H    Zr
    1    1    1    2
Direct
    0.0000000000000000    0.0000000000000000    0.4949991774882318     C1
    0.3333329854322145    0.6666669831836742    0.6048506510975824     F1
    0.6666669847440474    0.3333329859851447    0.3951493489024177     H1
    0.3333329854322145    0.6666669831836742    0.4385438121696604    Zr1
    0.6666669847440474    0.3333329859851447    0.5474445344387078    Zr2
