Sc-Sc-C-CN-OCl
   1.000
    3.4156413378120911    0.0000000000000000    0.0000000000000000
   -1.7078206689060456    2.9580321687614037    0.0000000000000000
    0.0000000000000000    0.0000000000000000   25.9532310696496999
   C    Cl   N    O    Sc
    2    1    1    1    2
Direct
    0.0000000000000000    0.0000000000000000    0.5051225114450519     C1
    0.3333329854322145    0.6666669831836742    0.6070376196174716     C2
    0.6666669847440474    0.3333329859851447    0.3467776314959413    Cl1
    0.3333329854322145    0.6666669831836742    0.6532223685040586     N1
    0.6666669847440474    0.3333329859851447    0.4141626531926491     O1
    0.3333329854322145    0.6666669831836742    0.4558443475997279    Sc1
    0.6666669847440474    0.3333329859851447    0.5521036609428922    Sc2
