Ti-Ti-N-CN-F
   1.000
    3.2199710661184411    0.0000000000000000    0.0000000000000000
   -1.6099855330592205    2.7885767427088539    0.0000000000000000
    0.0000000000000000    0.0000000000000000   23.8607583418104277
   C    F    N    Ti
    1    1    2    2
Direct
    0.3333329854322146    0.6666669831836742    0.5724251604162481     C1
    0.6666669847440474    0.3333329859851446    0.3771883471209544     F1
    0.0000000000000000    0.0000000000000000    0.4690835919863403     N1
    0.3333329854322146    0.6666669831836742    0.6228116528790455     N2
    0.3333329854322146    0.6666669831836742    0.4270419283547503    Ti1
    0.6666669847440474    0.3333329859851446    0.5137742291158856    Ti2
