Sc-Sc-N-CN-CN
   1.000
    3.3172597612803760    0.0000000000000000    0.0000000000000000
   -1.6586298806401880    2.8728312242098260    0.0000000000000000
    0.0000000000000000    0.0000000000000000   25.6981254156797370
   C    N    Sc
    2    3    2
Direct
    0.3333329854322145    0.6666669831836742    0.6030867046502866     C1
    0.6666669847440474    0.3333329859851446    0.3969132958427604     C2
    0.0000000000000000    0.0000000000000000    0.5000000332806627     N1
    0.3333329854322145    0.6666669831836742    0.6497799020582007     N2
    0.6666669847440474    0.3333329859851446    0.3502200979417993     N3
    0.3333329854322145    0.6666669831836742    0.4526111217200346    Sc1
    0.6666669847440474    0.3333329859851446    0.5473888782799566    Sc2
