Zr-Zr-C-CN-F
   1.000
    3.3902655649936184    0.0000000000000000    0.0000000000000000
   -1.6951327824968092    2.9360561048598934    0.0000000000000000
    0.0000000000000000    0.0000000000000000   24.4673070451469385
   C    F    N    Zr
    2    1    1    2
Direct
    0.0000000000000000    0.0000000000000000    0.4698603867798209     C1
    0.3333329854322145    0.6666669831836743    0.5829384746108170     C2
    0.6666669847440473    0.3333329859851447    0.3678377838391962     F1
    0.3333329854322145    0.6666669831836743    0.6321622161608038     N1
    0.3333329854322145    0.6666669831836743    0.4210293374536014    Zr1
    0.6666669847440473    0.3333329859851447    0.5220508109748239    Zr2
