Sc-Sc-N-O-O
   1.000
    3.2609809102451011    0.0000000000000000    0.0000000000000000
   -1.6304904551225505    2.8240923095033108    0.0000000000000000
    0.0000000000000000    0.0000000000000000   22.4037770715068660
   N    O    Sc
    1    2    2
Direct
    0.0000000000000000    0.0000000000000000    0.5000000392107947     N1
    0.3333329854322146    0.6666669831836742    0.5982820231037647     O1
    0.6666669847440474    0.3333329859851446    0.4017179768962352     O2
    0.3333329854322146    0.6666669831836742    0.4364953032352138    Sc1
    0.6666669847440474    0.3333329859851446    0.5635046961795399    Sc2
