Hf-Hf-N-NO-Br
   1.000
    3.3567692320418931    0.0000000000000000    0.0000000000000000
   -1.6783846160209466    2.9070474295753743    0.0000000000000000
    0.0000000000000000    0.0000000000000000   24.8301034805325465
   Br   Hf   N    O 
    1    2    2    1
Direct
    0.6666669847440473    0.3333329859851446    0.3624632497829192    Br1
    0.3333329854322144    0.6666669831836741    0.4420869977526724    Hf1
    0.6666669847440473    0.3333329859851446    0.5386662212308277    Hf2
    0.0000000000000000    0.0000000000000000    0.4870867857151054     N1
    0.3333329854322144    0.6666669831836741    0.5836128852335445     N2
    0.3333329854322144    0.6666669831836741    0.6375367502170808     O1
