Sc-Sc-N-CN-PO
   1.000
    3.2879795205654956    0.0000000000000000    0.0000000000000000
   -1.6439897602827478    2.8474737919243611    0.0000000000000000
    0.0000000000000000    0.0000000000000000   26.5332869704497654
   C    N    O    P    Sc
    1    2    1    1    2
Direct
    0.3333329854322146    0.6666669831836742    0.6156069251654078     C1
    0.0000000000000000    0.0000000000000000    0.5153157842716134     N1
    0.3333329854322146    0.6666669831836742    0.6608034274071155     N2
    0.6666669847440474    0.3333329859851445    0.3391965725928845     O1
    0.6666669847440474    0.3333329859851445    0.3954833131356842     P1
    0.3333329854322146    0.6666669831836742    0.4702113690082135    Sc1
    0.6666669847440474    0.3333329859851445    0.5609464738731142    Sc2
