Zr-Zr-N-OCN-OCN
   1.000
    3.3915938158428913    0.0000000000000000    0.0000000000000000
   -1.6957969079214457    2.9372064038106349    0.0000000000000000
    0.0000000000000000    0.0000000000000000   28.0728497128995187
   C    N    O    Zr
    2    3    2    2
Direct
    0.3333329854322145    0.6666669831836742    0.6370797496628705     C1
    0.6666669847440473    0.3333329859851446    0.3629202499053567     C2
    0.0000000000000000    0.0000000000000000    0.5000000289287208     N1
    0.3333329854322145    0.6666669831836742    0.6794055433615460     N2
    0.6666669847440473    0.3333329859851446    0.3205944566384540     N3
    0.3333329854322145    0.6666669831836742    0.5894397322116991     O1
    0.6666669847440473    0.3333329859851446    0.4105602677883007     O2
    0.3333329854322145    0.6666669831836742    0.4592131576024270    Zr1
    0.6666669847440473    0.3333329859851446    0.5407868419657932    Zr2
