Ti-Ti-N-NO-NCO
   1.000
    3.1225406949908630    0.0000000000000000    0.0000000000000000
   -1.5612703474954315    2.7041995662112797    0.0000000000000000
    0.0000000000000000    0.0000000000000000   27.4009089698174293
   C    N    O    Ti
    1    3    2    2
Direct
    0.6666669847440475    0.3333329859851446    0.3723753174970993     C1
    0.0000000000000000    0.0000000000000000    0.4948514454054701     N1
    0.3333329854322145    0.6666669831836742    0.5972969955041382     N2
    0.6666669847440475    0.3333329859851446    0.4177244500231310     N3
    0.3333329854322145    0.6666669831836742    0.6715437429497811     O1
    0.6666669847440475    0.3333329859851446    0.3284562570502189     O2
    0.3333329854322145    0.6666669831836742    0.4703323513450137    Ti1
    0.6666669847440475    0.3333329859851446    0.6310646325354022    Ti2
