Hf-Hf-C-CN-OH
   1.000
    3.3115023355971180    0.0000000000000000    0.0000000000000000
   -1.6557511677985590    2.8678451473035347    0.0000000000000000
    0.0000000000000000    0.0000000000000000   25.4350007985136131
   C    H    Hf   N    O 
    2    1    2    1    1
Direct
    0.0000000000000000    0.0000000000000000    0.4914259125079869     C1
    0.3333329854322145    0.6666669831836742    0.5987007212415049     C2
    0.6666669847440474    0.3333329859851446    0.3538431184372500     H1
    0.3333329854322145    0.6666669831836742    0.4446994311857164    Hf1
    0.6666669847440474    0.3333329859851446    0.5409317285447446    Hf2
    0.3333329854322145    0.6666669831836742    0.6461568815627501     N1
    0.6666669847440474    0.3333329859851446    0.3927584072752864     O1
