Hf-Hf-N-H-H
   1.000
    3.1803035115885883    0.0000000000000000    0.0000000000000000
   -1.5901517557942941    2.7542236327921219    0.0000000000000000
    0.0000000000000000    0.0000000000000000   22.5363458687576781
   H    Hf   N 
    2    2    1
Direct
    0.3333329854322145    0.6666669831836742    0.6006451066906648     H1
    0.6666669847440474    0.3333329859851446    0.3993548933093353     H2
    0.3333329854322145    0.6666669831836742    0.4445913742059982    Hf1
    0.6666669847440474    0.3333329859851446    0.5554086251823055    Hf2
    0.0000000000000000    0.0000000000000000    0.5000000409829073     N1
