Zr-Zr-N-NCO-NCS
   1.000
    3.3998057782015847    0.0000000000000000    0.0000000000000000
   -1.6999028891007923    2.9443181718521734    0.0000000000000000
    0.0000000000000000    0.0000000000000000   28.4001079669886956
   C    N    O    S    Zr
    2    3    1    1    2
Direct
    0.3333329854322146    0.6666669831836743    0.6406542759507288     C1
    0.6666669847440474    0.3333329859851447    0.3715808853459997     C2
    0.0000000000000000    0.0000000000000000    0.5057530473809577     N1
    0.3333329854322146    0.6666669831836743    0.5967424889242148     N2
    0.6666669847440474    0.3333329859851447    0.4157464464850550     N3
    0.3333329854322146    0.6666669831836743    0.6830997962943912     O1
    0.6666669847440474    0.3333329859851447    0.3169002037056087     S1
    0.3333329854322146    0.6666669831836743    0.4644457633429180    Zr1
    0.6666669847440474    0.3333329859851447    0.5460827322740853    Zr2
