Sc-Sc-N-NCS-OCN
   1.000
    3.3295235263743290    0.0000000000000000    0.0000000000000000
   -1.6647617631871645    2.8834519563311409    0.0000000000000000
    0.0000000000000000    0.0000000000000000   28.2675693272940123
   C    N    O    S    Sc
    2    3    1    1    2
Direct
    0.3333329854322145    0.6666669831836742    0.6267341002811760     C1
    0.6666669847440475    0.3333329859851446    0.3604053379543100     C2
    0.0000000000000000    0.0000000000000000    0.4929809107502541     N1
    0.3333329854322145    0.6666669831836742    0.5823695672572367     N2
    0.6666669847440475    0.3333329859851446    0.3183860591547207     N3
    0.6666669847440475    0.3333329859851446    0.4076754987975691     O1
    0.3333329854322145    0.6666669831836742    0.6816139408452793     S1
    0.3333329854322145    0.6666669831836742    0.4518479362884205    Sc1
    0.6666669847440475    0.3333329859851446    0.5377003867083985    Sc2
