Hf-Hf-C-PO-O
   1.000
    3.2786569261595337    0.0000000000000000    0.0000000000000000
   -1.6393284630797669    2.8394001883311626    0.0000000000000000
    0.0000000000000000    0.0000000000000000   25.0130728471043646
   C    Hf   O    P 
    1    2    2    1
Direct
    0.0000000000000000    0.0000000000000000    0.4531774648902859     C1
    0.3333329854322145    0.6666669831836742    0.3971994023591982    Hf1
    0.6666669847440474    0.3333329859851446    0.5026764136179893    Hf2
    0.3333329854322145    0.6666669831836742    0.6401881506117357     O1
    0.6666669847440474    0.3333329859851446    0.3598118493882643     O2
    0.3333329854322145    0.6666669831836742    0.5804712643847592     P1
