Y-Y-N-NO-Br
   1.000
    3.6917226702674952    0.0000000000000000    0.0000000000000000
   -1.8458613351337476    3.1971256161992518    0.0000000000000000
    0.0000000000000000    0.0000000000000000   24.9342114644970820
   Br   N    O    Y 
    1    2    1    2
Direct
    0.6666669847440475    0.3333329859851446    0.3609498544926826    Br1
    0.0000000000000000    0.0000000000000000    0.4835640238312092     N1
    0.3333329854322145    0.6666669831836741    0.5847420361206470     N2
    0.3333329854322145    0.6666669831836741    0.6390501455073174     O1
    0.3333329854322145    0.6666669831836741    0.4402769932611181     Y1
    0.6666669847440475    0.3333329859851446    0.5528404001838786     Y2
