Zr-Zr-C-NCO-NCS
   1.000
    3.4049976743722548    0.0000000000000000    0.0000000000000000
   -1.7024988371861274    2.9488144858291747    0.0000000000000000
    0.0000000000000000    0.0000000000000000   28.5565982433897574
   C    N    O    S    Zr
    3    2    1    1    2
Direct
    0.0000000000000000    0.0000000000000000    0.5057922764756355     C1
    0.3333329854322145    0.6666669831836742    0.6426191392187007     C2
    0.6666669847440475    0.3333329859851446    0.3695762052447982     C3
    0.3333329854322145    0.6666669831836742    0.5989623658225858     N1
    0.6666669847440475    0.3333329859851446    0.4134435032154127     N2
    0.3333329854322145    0.6666669831836742    0.6848364107204783     O1
    0.6666669847440475    0.3333329859851446    0.3151635892795217     S1
    0.3333329854322145    0.6666669831836742    0.4622100473187776    Zr1
    0.6666669847440475    0.3333329859851446    0.5483114855983946    Zr2
