Hf-Hf-C-NCO-OH
   1.000
    3.3067699196492475    0.0000000000000000    0.0000000000000000
   -1.6533849598246237    2.8637467548751596    0.0000000000000000
    0.0000000000000000    0.0000000000000000   26.6238104605382553
   C    H    Hf   N    O 
    2    1    2    1    2
Direct
    0.0000000000000000    0.0000000000000000    0.4700805119483633     C1
    0.3333329854322145    0.6666669831836743    0.6166806049656290     C2
    0.6666669847440474    0.3333329859851447    0.3380432719553716     H1
    0.3333329854322145    0.6666669831836743    0.4250702925632570    Hf1
    0.6666669847440474    0.3333329859851447    0.5156538687778029    Hf2
    0.3333329854322145    0.6666669831836743    0.5697770043667303     N1
    0.3333329854322145    0.6666669831836743    0.6619567280446284     O1
    0.6666669847440474    0.3333329859851447    0.3752400849598264     O2
