Sc-Sc-N-NCO-PO
   1.000
    3.2731559540769619    0.0000000000000000    0.0000000000000000
   -1.6365779770384810    2.8346362067790154    0.0000000000000000
    0.0000000000000000    0.0000000000000000   27.6838818998454279
   C    N    O    P    Sc
    1    2    2    1    2
Direct
    0.3333329854322145    0.6666669831836742    0.6314299659995156     C1
    0.0000000000000000    0.0000000000000000    0.4946061497294876     N1
    0.3333329854322145    0.6666669831836742    0.5864327827479081     N2
    0.3333329854322145    0.6666669831836742    0.6749010838667734     O1
    0.6666669847440475    0.3333329859851447    0.3250989161332266     O2
    0.6666669847440475    0.3333329859851447    0.3790478737459182     P1
    0.3333329854322145    0.6666669831836742    0.4505799630323548    Sc1
    0.6666669847440475    0.3333329859851447    0.5376296209812746    Sc2
