Hf-Hf-N-NCS-F
   1.000
    3.3542240217260133    0.0000000000000000    0.0000000000000000
   -1.6771120108630067    2.9048432127984536    0.0000000000000000
    0.0000000000000000    0.0000000000000000   25.7128279334187617
   C    F    Hf   N    S 
    1    1    2    2    1
Direct
    0.3333329854322145    0.6666669831836742    0.5896953292978413     C1
    0.6666669847440473    0.3333329859851446    0.3500198431422928     F1
    0.3333329854322145    0.6666669831836742    0.4007934525652593    Hf1
    0.6666669847440473    0.3333329859851446    0.4887757768147876    Hf2
    0.0000000000000000    0.0000000000000000    0.4421350734688815     N1
    0.3333329854322145    0.6666669831836742    0.5404910203683270     N2
    0.3333329854322145    0.6666669831836742    0.6499801568577073     S1
