Zr-Zr-N-NCS-SCN
   1.000
    3.4811919869789647    0.0000000000000000    0.0000000000000000
   -1.7405959934894824    3.0148006961654876    0.0000000000000000
    0.0000000000000000    0.0000000000000000   29.0249692418919878
   C    N    S    Zr
    2    3    2    2
Direct
    0.3333329854322146    0.6666669831836743    0.6363785937384635     C1
    0.6666669847440474    0.3333329859851447    0.3510975413113755     C2
    0.0000000000000000    0.0000000000000000    0.5089712252607504     N1
    0.3333329854322146    0.6666669831836743    0.5931410938153040     N2
    0.6666669847440474    0.3333329859851447    0.3100778479727111     N3
    0.3333329854322146    0.6666669831836743    0.6899221520272889     S1
    0.6666669847440474    0.3333329859851447    0.4091254580711718     S2
    0.3333329854322146    0.6666669831836743    0.4663656011969595    Zr1
    0.6666669847440474    0.3333329859851447    0.5462410626452456    Zr2
