Zr-Zr-C-NCO-SCN
   1.000
    3.4767414560416974    0.0000000000000000    0.0000000000000000
   -1.7383707280208487    3.0109464233108811    0.0000000000000000
    0.0000000000000000    0.0000000000000000   28.8615754265214264
   C    N    O    S    Zr
    3    2    1    1    2
Direct
    0.0000000000000000    0.0000000000000000    0.5134257181369202     C1
    0.3333329854322145    0.6666669831836743    0.6464333935675888     C2
    0.6666669847440473    0.3333329859851446    0.3530902757433076     C3
    0.3333329854322145    0.6666669831836743    0.6031682264877662     N1
    0.6666669847440473    0.3333329859851446    0.3118332893127427     N2
    0.3333329854322145    0.6666669831836743    0.6881667106872573     O1
    0.6666669847440473    0.3333329859851446    0.4113477043765494     S1
    0.3333329854322145    0.6666669831836743    0.4701920460053871    Zr1
    0.6666669847440473    0.3333329859851446    0.5536089914962612    Zr2
