Y-Y-C-NCO-F
   1.000
    3.6186729505378858    0.0000000000000000    0.0000000000000000
   -1.8093364752689429    3.1338627031585626    0.0000000000000000
    0.0000000000000000    0.0000000000000000   25.7695967801817787
   C    F    N    O    Y 
    2    1    1    1    2
Direct
    0.0000000000000000    0.0000000000000000    0.4474159891430410     C1
    0.3333329854322146    0.6666669831836742    0.6039234516908283     C2
    0.6666669847440474    0.3333329859851446    0.3492487708197860     F1
    0.3333329854322146    0.6666669831836742    0.5555979707786471     N1
    0.3333329854322146    0.6666669831836742    0.6507512291802140     O1
    0.3333329854322146    0.6666669831836742    0.3939710097458303     Y1
    0.6666669847440474    0.3333329859851446    0.5003255313917526     Y2
