Ti-Ti-N-OCl-SCN
   1.000
    3.1441965229121007    0.0000000000000000    0.0000000000000000
   -1.5720982614560504    2.7229540633334417    0.0000000000000000
    0.0000000000000000    0.0000000000000000   29.2482229285398603
   C    Cl   N    O    S    Ti
    1    1    2    1    1    2
Direct
    0.6666669847440474    0.3333329859851446    0.3484300043750712     C1
    0.3333329854322145    0.6666669831836742    0.6922889974550225    Cl1
    0.0000000000000000    0.0000000000000000    0.5003510567032851     N1
    0.6666669847440474    0.3333329859851446    0.3077110025449775     N2
    0.3333329854322145    0.6666669831836742    0.5718340978369145     O1
    0.6666669847440474    0.3333329859851446    0.4060745536690454     S1
    0.3333329854322145    0.6666669831836742    0.4598872618425743    Ti1
    0.6666669847440474    0.3333329859851446    0.5427077574543390    Ti2
