Hf-Hf-N-Br-OH
   1.000
    3.3747134412762168    0.0000000000000000    0.0000000000000000
   -1.6873567206381084    2.9225875706291760    0.0000000000000000
    0.0000000000000000    0.0000000000000000   24.4553419795394156
   Br   H    Hf   N    O 
    1    1    2    1    1
Direct
    0.3333329854322145    0.6666669831836742    0.6319822471699696    Br1
    0.6666669847440473    0.3333329859851446    0.3680177528300303     H1
    0.3333329854322145    0.6666669831836742    0.4598937266278207    Hf1
    0.6666669847440473    0.3333329859851446    0.5521927990146016    Hf2
    0.0000000000000000    0.0000000000000000    0.5046687276286463     N1
    0.6666669847440473    0.3333329859851446    0.4086568207247104     O1
