Zr-Zr-C-OCl-O
   1.000
    3.3216046405270698    0.0000000000000000    0.0000000000000000
   -1.6608023202635349    2.8765940000244008    0.0000000000000000
    0.0000000000000000    0.0000000000000000   26.3248596163442947
   C    Cl   O    Zr
    1    1    2    2
Direct
    0.0000000000000000    0.0000000000000000    0.4304693379449088     C1
    0.3333329854322145    0.6666669831836742    0.6581178349603742    Cl1
    0.3333329854322145    0.6666669831836742    0.5184900127228091     O1
    0.6666669847440474    0.3333329859851446    0.3418821650396258     O2
    0.3333329854322145    0.6666669831836742    0.3771490464154295    Zr1
    0.6666669847440474    0.3333329859851446    0.4846931456691571    Zr2
