Sc-Sc-C-NCO-Br
   1.000
    3.4459689694758979    0.0000000000000000    0.0000000000000000
   -1.7229844847379490    2.9842966682176386    0.0000000000000000
    0.0000000000000000    0.0000000000000000   26.0965313734290696
   Br   C    N    O    Sc
    1    2    1    1    2
Direct
    0.6666669847440474    0.3333329859851446    0.3448734190461652    Br1
    0.0000000000000000    0.0000000000000000    0.4632755091049245     C1
    0.3333329854322145    0.6666669831836742    0.6089441240682101     C2
    0.3333329854322145    0.6666669831836742    0.5611707227143765     N1
    0.3333329854322145    0.6666669831836742    0.6551265809538347     O1
    0.3333329854322145    0.6666669831836742    0.4163518054922348    Sc1
    0.6666669847440474    0.3333329859851446    0.5108748416068825    Sc2
