Zr-Zr-N-NO-OCl
   1.000
    3.3529598668401772    0.0000000000000000    0.0000000000000000
   -1.6764799334200886    2.9037484225532708    0.0000000000000000
    0.0000000000000000    0.0000000000000000   27.2109074381950684
   Cl   N    O    Zr
    1    2    2    2
Direct
    0.6666669847440474    0.3333329859851446    0.3307497194072622    Cl1
    0.0000000000000000    0.0000000000000000    0.5304893564428659     N1
    0.3333329854322146    0.6666669831836742    0.6198633801248699     N2
    0.3333329854322146    0.6666669831836742    0.6692502805927378     O1
    0.6666669847440474    0.3333329859851446    0.4518694514924583     O2
    0.3333329854322146    0.6666669831836742    0.4827669982605073    Zr1
    0.6666669847440474    0.3333329859851446    0.5856980523943329    Zr2
