Y-Y-C-Cl-H
   1.000
    3.6616850937634986    0.0000000000000000    0.0000000000000000
   -1.8308425468817493    3.1711123118754094    0.0000000000000000
    0.0000000000000000    0.0000000000000000   23.5324561130314507
   C    Cl   H    Y 
    1    1    1    2
Direct
    0.0000000000000000    0.0000000000000000    0.4843742783441520     C1
    0.3333329854322145    0.6666669831836742    0.6175494832850823    Cl1
    0.6666669847440474    0.3333329859851446    0.3824505167149177     H1
    0.3333329854322145    0.6666669831836742    0.4265231571104247     Y1
    0.6666669847440474    0.3333329859851446    0.5420080570402370     Y2
