Hf-Hf-C-NCO-H
   1.000
    3.2934478712839002    0.0000000000000000    0.0000000000000000
   -1.6467239356419501    2.8522095225644288    0.0000000000000000
    0.0000000000000000    0.0000000000000000   25.3262318625188350
   C    H    Hf   N    O 
    2    1    2    1    1
Direct
    0.0000000000000000    0.0000000000000000    0.4439525654276980     C1
    0.3333329854322145    0.6666669831836742    0.5970626862357415     C2
    0.6666669847440474    0.3333329859851446    0.3553627736196876     H1
    0.3333329854322145    0.6666669831836742    0.3946871591712102    Hf1
    0.6666669847440474    0.3333329859851446    0.4910158345641491    Hf2
    0.3333329854322145    0.6666669831836742    0.5477642813405814     N1
    0.3333329854322145    0.6666669831836742    0.6446372263803124     O1
