Hf-Hf-N-OCl-NCS
   1.000
    3.2518286197548960    0.0000000000000000    0.0000000000000000
   -1.6259143098774480    2.8161661934551581    0.0000000000000000
    0.0000000000000000    0.0000000000000000   28.9684460104542154
   C    Cl   Hf   N    O    S 
    1    1    2    2    1    1
Direct
    0.6666669847440474    0.3333329859851446    0.3640485098918977     C1
    0.3333329854322145    0.6666669831836742    0.6893171281347970    Cl1
    0.3333329854322145    0.6666669831836742    0.4528155532548834    Hf1
    0.6666669847440474    0.3333329859851446    0.5433981110467415    Hf2
    0.0000000000000000    0.0000000000000000    0.4982917983029955     N1
    0.6666669847440474    0.3333329859851446    0.4080546716954291     N2
    0.3333329854322145    0.6666669831836742    0.5741786447190897     O1
    0.6666669847440474    0.3333329859851446    0.3106828718652030     S1
