Zr-Zr-N-PO-H
   1.000
    3.2501611238218486    0.0000000000000000    0.0000000000000000
   -1.6250805619109243    2.8147220996221654    0.0000000000000000
    0.0000000000000000    0.0000000000000000   25.0804038131778348
   H    N    O    P    Zr
    1    1    1    1    2
Direct
    0.6666669847440474    0.3333329859851447    0.3588458968619632     H1
    0.0000000000000000    0.0000000000000000    0.4509149198826924     N1
    0.3333329854322146    0.6666669831836742    0.6411541031380368     O1
    0.3333329854322146    0.6666669831836742    0.5816779873178211     P1
    0.3333329854322146    0.6666669831836742    0.3994129506988969    Zr1
    0.6666669847440474    0.3333329859851447    0.5028036330702743    Zr2
