Ti-Ti-C-SCN-Cl
   1.000
    3.3108049315756731    0.0000000000000000    0.0000000000000000
   -1.6554024657878366    2.8672411777020517    0.0000000000000000
    0.0000000000000000    0.0000000000000000   26.2346877327913077
   C    Cl   N    S    Ti
    2    1    1    1    2
Direct
    0.0000000000000000    0.0000000000000000    0.4464917607847136     C1
    0.3333329854322145    0.6666669831836742    0.6115478116023454     C2
    0.6666669847440474    0.3333329859851446    0.3430572565478149    Cl1
    0.3333329854322145    0.6666669831836742    0.6569427434521851     N1
    0.3333329854322145    0.6666669831836742    0.5476061249080539     S1
    0.3333329854322145    0.6666669831836742    0.4065321850659036    Ti1
    0.6666669847440474    0.3333329859851446    0.4884573312142802    Ti2
