Ti-Ti-C-NO-F
   1.000
    3.2217834785879580    0.0000000000000000    0.0000000000000000
   -1.6108917392939790    2.7901463379500084    0.0000000000000000
    0.0000000000000000    0.0000000000000000   23.7635469701748576
   C    F    N    O    Ti
    1    1    1    1    2
Direct
    0.0000000000000000    0.0000000000000000    0.4718023822258645     C1
    0.6666669847440475    0.3333329859851447    0.3787313405400177     F1
    0.3333329854322145    0.6666669831836742    0.5659293905778997     N1
    0.3333329854322145    0.6666669831836742    0.6212686594599823     O1
    0.3333329854322145    0.6666669831836742    0.4286623468162037    Ti1
    0.6666669847440475    0.3333329859851447    0.5278934617131812    Ti2
