Y-Y-N-CN-O
   1.000
    3.5985686394952277    0.0000000000000000    0.0000000000000000
   -1.7992843197476138    3.1164518590690200    0.0000000000000000
    0.0000000000000000    0.0000000000000000   24.2621642244539224
   C    N    O    Y 
    1    2    1    2
Direct
    0.3333329854322145    0.6666669831836742    0.5796903722085542     C1
    0.0000000000000000    0.0000000000000000    0.4706229824944447     N1
    0.3333329854322145    0.6666669831836742    0.6290520533642721     N2
    0.6666669847440474    0.3333329859851447    0.3709479466357279     O1
    0.3333329854322145    0.6666669831836742    0.3989426223946038     Y1
    0.6666669847440474    0.3333329859851447    0.5152355519465993     Y2
