Y-Y-N-OCl-SCN
   1.000
    3.7717479038951951    0.0000000000000000    0.0000000000000000
   -1.8858739519475975    3.2664295014692191    0.0000000000000000
    0.0000000000000000    0.0000000000000000   27.8522213660518467
   C    Cl   N    O    S    Y 
    1    1    2    1    1    2
Direct
    0.6666669847440473    0.3333329859851446    0.3660347650568467     C1
    0.3333329854322145    0.6666669831836742    0.6768659891892931    Cl1
    0.0000000000000000    0.0000000000000000    0.5150181357792791     N1
    0.6666669847440473    0.3333329859851446    0.3231340108107069     N2
    0.3333329854322145    0.6666669831836742    0.5803134114712917     O1
    0.6666669847440473    0.3333329859851446    0.4256494426196971     S1
    0.3333329854322145    0.6666669831836742    0.4934632320695794     Y1
    0.6666669847440473    0.3333329859851446    0.6061947541611766     Y2
