Ti-Ti-N-CN-NCS
   1.000
    3.2044180021925062    0.0000000000000000    0.0000000000000000
   -1.6022090010962531    2.7751073942424886    0.0000000000000000
    0.0000000000000000    0.0000000000000000   26.8103994449952339
   C    N    S    Ti
    2    3    1    2
Direct
    0.3333329854322146    0.6666669831836742    0.6194651107898004     C1
    0.6666669847440474    0.3333329859851446    0.3934908973629933     C2
    0.0000000000000000    0.0000000000000000    0.5277512659213514     N1
    0.3333329854322146    0.6666669831836742    0.6643093655331550     N2
    0.6666669847440474    0.3333329859851446    0.4402277385997427     N3
    0.6666669847440474    0.3333329859851446    0.3356906344668450     S1
    0.3333329854322146    0.6666669831836742    0.4881165259520756    Ti1
    0.6666669847440474    0.3333329859851446    0.5667187246132032    Ti2
