Zr-Zr-C-F-Br
   1.000
    3.4436761244465015    0.0000000000000000    0.0000000000000000
   -1.7218380622232508    2.9823110061733291    0.0000000000000000
    0.0000000000000000    0.0000000000000000   23.6943445330674791
   Br   C    F    Zr
    1    1    1    2
Direct
    0.6666669847440474    0.3333329859851446    0.3798374750329022    Br1
    0.0000000000000000    0.0000000000000000    0.5156902220186022     C1
    0.3333329854322145    0.6666669831836741    0.6201625249670979     F1
    0.3333329854322145    0.6666669831836741    0.4634622601800806    Zr1
    0.6666669847440474    0.3333329859851446    0.5651878861933639    Zr2
