Sc-Sc-N-SCN-O
   1.000
    3.3843113319185725    0.0000000000000000    0.0000000000000000
   -1.6921556659592862    2.9308995877534043    0.0000000000000000
    0.0000000000000000    0.0000000000000000   25.7696690790771896
   C    N    O    S    Sc
    1    2    1    1    2
Direct
    0.3333329854322145    0.6666669831836742    0.6045608090907062     C1
    0.0000000000000000    0.0000000000000000    0.4358772520613949     N1
    0.3333329854322145    0.6666669831836742    0.6507522090259497     N2
    0.6666669847440474    0.3333329859851446    0.3492477909740503     O1
    0.3333329854322145    0.6666669831836742    0.5398800446080682     S1
    0.3333329854322145    0.6666669831836742    0.3739164664724263    Sc1
    0.6666669847440474    0.3333329859851446    0.4736437299604948    Sc2
