Ti-Ti-C-F-OH
   1.000
    3.2039622753501669    0.0000000000000000    0.0000000000000000
   -1.6019811376750834    2.7747127232205884    0.0000000000000000
    0.0000000000000000    0.0000000000000000   23.6878674066270847
   C    F    H    O    Ti
    1    1    1    1    2
Direct
    0.0000000000000000    0.0000000000000000    0.5216086672461531     C1
    0.3333329854322145    0.6666669831836742    0.6200586635552470     F1
    0.6666669847440475    0.3333329859851445    0.3799413364447530     H1
    0.6666669847440475    0.3333329859851445    0.4215559037250993     O1
    0.3333329854322145    0.6666669831836742    0.4741461841269309    Ti1
    0.6666669847440475    0.3333329859851445    0.5679843132218487    Ti2
