Ti-Ti-N-CN-NCO
   1.000
    3.1724338942982722    0.0000000000000000    0.0000000000000000
   -1.5862169471491361    2.7474083442971584    0.0000000000000000
    0.0000000000000000    0.0000000000000000   26.5129638835706949
   C    N    O    Ti
    2    3    1    2
Direct
    0.3333329854322145    0.6666669831836742    0.6151855553206096     C1
    0.6666669847440473    0.3333329859851446    0.3848530488366583     C2
    0.0000000000000000    0.0000000000000000    0.5216606903396692     N1
    0.3333329854322145    0.6666669831836742    0.6605434217191750     N2
    0.6666669847440473    0.3333329859851446    0.4318875813416108     N3
    0.6666669847440473    0.3333329859851446    0.3394565782808249     O1
    0.3333329854322145    0.6666669831836742    0.4822935807174046    Ti1
    0.6666669847440473    0.3333329859851446    0.5617005643210911    Ti2
