Zr-Zr-C-Cl-OCN
   1.000
    3.4235972342773340    0.0000000000000000    0.0000000000000000
   -1.7117986171386670    2.9649221772095840    0.0000000000000000
    0.0000000000000000    0.0000000000000000   26.1214673111252154
   C    Cl   N    O    Zr
    2    1    1    1    2
Direct
    0.0000000000000000    0.0000000000000000    0.5395272284295839     C1
    0.6666669847440475    0.3333329859851446    0.3900357227053882     C2
    0.3333329854322145    0.6666669831836743    0.6554558022027013    Cl1
    0.6666669847440475    0.3333329859851446    0.3445441977972987     N1
    0.6666669847440475    0.3333329859851446    0.4411478686206084     O1
    0.3333329854322145    0.6666669831836743    0.4940634910106723    Zr1
    0.6666669847440475    0.3333329859851446    0.5863567340361302    Zr2
