Ti-Ti-N-H-OH
   1.000
    3.0802024369056995    0.0000000000000000    0.0000000000000000
   -1.5401012184528498    2.6675335591603386    0.0000000000000000
    0.0000000000000000    0.0000000000000000   23.4112614057477657
   H    N    O    Ti
    2    1    1    2
Direct
    0.3333329854322145    0.6666669831836742    0.6155696250612799     H1
    0.6666669847440474    0.3333329859851446    0.3844303749387201     H2
    0.0000000000000000    0.0000000000000000    0.5266317491011402     N1
    0.6666669847440474    0.3333329859851446    0.4266607009205573     O1
    0.3333329854322145    0.6666669831836742    0.4797661989628890    Ti1
    0.6666669847440474    0.3333329859851446    0.5731247143126538    Ti2
