Hf-Hf-C-H-H
   1.000
    3.2606465901758193    0.0000000000000000    0.0000000000000000
   -1.6303232950879096    2.8238027798507175    0.0000000000000000
    0.0000000000000000    0.0000000000000000   22.5160947769955797
   C    H    Hf
    1    2    2
Direct
    0.0000000000000000    0.0000000000000000    0.5000000390231993     C1
    0.3333329854322145    0.6666669831836741    0.6002859248400754     H1
    0.6666669847440475    0.3333329859851446    0.3997140751599247     H2
    0.3333329854322145    0.6666669831836741    0.4452124160791995    Hf1
    0.6666669847440475    0.3333329859851446    0.5547875833383544    Hf2
