Hf-Hf-C-CN-PO
   1.000
    3.3196301924643055    0.0000000000000000    0.0000000000000000
   -1.6598150962321527    2.8748840778284683    0.0000000000000000
    0.0000000000000000    0.0000000000000000   26.5892251516727143
   C    Hf   N    O    P 
    2    2    1    1    1
Direct
    0.0000000000000000    0.0000000000000000    0.5147370518259980     C1
    0.3333329854322145    0.6666669831836743    0.6160609631672924     C2
    0.3333329854322145    0.6666669831836743    0.4680930951363407    Hf1
    0.6666669847440473    0.3333329859851447    0.5615663679575102    Hf2
    0.3333329854322145    0.6666669831836743    0.6615170262141388     N1
    0.6666669847440473    0.3333329859851447    0.3384829737858613     O1
    0.6666669847440473    0.3333329859851447    0.3947019036541287     P1
