Hf-Hf-C-CN-NO
   1.000
    3.3612438130365478    0.0000000000000000    0.0000000000000000
   -1.6806219065182739    2.9109225303812858    0.0000000000000000
    0.0000000000000000    0.0000000000000000   25.5665946411122817
   C    Hf   N    O 
    2    2    2    1
Direct
    0.0000000000000000    0.0000000000000000    0.4985606228465068     C1
    0.3333329854322145    0.6666669831836742    0.6007644963966446     C2
    0.3333329854322145    0.6666669831836742    0.4428099009124590    Hf1
    0.6666669847440473    0.3333329859851446    0.5435036237342066    Hf2
    0.3333329854322145    0.6666669831836742    0.6479781478004278     N1
    0.6666669847440473    0.3333329859851446    0.4043553752041273     N2
    0.6666669847440473    0.3333329859851446    0.3520218521995722     O1
