Zr-Zr-C-NCO-H
   1.000
    3.3504701586784584    0.0000000000000000    0.0000000000000000
   -1.6752350793392292    2.9015922720301859    0.0000000000000000
    0.0000000000000000    0.0000000000000000   25.4021038719410015
   C    H    N    O    Zr
    2    1    1    1    2
Direct
    0.0000000000000000    0.0000000000000000    0.4436184275892676     C1
    0.3333329854322146    0.6666669831836742    0.5982580750928890     C2
    0.6666669847440474    0.3333329859851446    0.3543013620199129     H1
    0.3333329854322146    0.6666669831836742    0.5491905190799081     N1
    0.3333329854322146    0.6666669831836742    0.6456986379800871     O1
    0.3333329854322146    0.6666669831836742    0.3937948746561669    Zr1
    0.6666669847440474    0.3333329859851446    0.4918464303181859    Zr2
