Zr-Zr-N-O-OCN
   1.000
    3.2869412428902747    0.0000000000000000    0.0000000000000000
   -1.6434706214451373    2.8465746170898227    0.0000000000000000
    0.0000000000000000    0.0000000000000000   25.5323012898197597
   C    N    O    Zr
    1    2    2    2
Direct
    0.6666669847440474    0.3333329859851446    0.3990094074943880     C1
    0.0000000000000000    0.0000000000000000    0.5576544530534475     N1
    0.6666669847440474    0.3333329859851446    0.3524946653981590     N2
    0.3333329854322146    0.6666669831836742    0.6475053346018409     O1
    0.6666669847440474    0.3333329859851446    0.4513605512649986     O2
    0.3333329854322146    0.6666669831836742    0.5070729781852393    Zr1
    0.6666669847440474    0.3333329859851446    0.6090529381499590    Zr2
