Hf-Hf-C-NO-NO
   1.000
    3.3122661185428388    0.0000000000000000    0.0000000000000000
   -1.6561330592714194    2.8685066027506894    0.0000000000000000
    0.0000000000000000    0.0000000000000000   25.6257773583568849
   C    Hf   N    O 
    1    2    2    2
Direct
    0.0000000000000000    0.0000000000000000    0.5000000332273655     C1
    0.3333329854322145    0.6666669831836742    0.4489242295338943    Hf1
    0.6666669847440474    0.3333329859851446    0.5510757699701661    Hf2
    0.3333329854322145    0.6666669831836742    0.5972427379758198     N1
    0.6666669847440474    0.3333329859851446    0.4027572620241800     N2
    0.3333329854322145    0.6666669831836742    0.6487911420542727     O1
    0.6666669847440474    0.3333329859851446    0.3512088579457274     O2
