Zr-Zr-N-NCO-SCN
   1.000
    3.4487477623371405    0.0000000000000000    0.0000000000000000
   -1.7243738811685703    2.9867031733400462    0.0000000000000000
    0.0000000000000000    0.0000000000000000   28.7568202091450935
   C    N    O    S    Zr
    2    3    1    1    2
Direct
    0.3333329854322146    0.6666669831836742    0.6451497007394613     C1
    0.6666669847440474    0.3333329859851446    0.3543750150556422     C2
    0.0000000000000000    0.0000000000000000    0.5154837203486573     N1
    0.3333329854322146    0.6666669831836742    0.6017306782628506     N2
    0.6666669847440474    0.3333329859851446    0.3129692342388353     N3
    0.3333329854322146    0.6666669831836742    0.6870307657611647     O1
    0.6666669847440474    0.3333329859851446    0.4129749403076691     S1
    0.3333329854322146    0.6666669831836742    0.4707684735212940    Zr1
    0.6666669847440474    0.3333329859851446    0.5524958029084123    Zr2
