Hf-Hf-N-CN-CN
   1.000
    3.3119081502305110    0.0000000000000000    0.0000000000000000
   -1.6559540751152555    2.8681965930972360    0.0000000000000000
    0.0000000000000000    0.0000000000000000   25.6913896912232715
   C    Hf   N 
    2    2    3
Direct
    0.3333329854322145    0.6666669831836742    0.6026104525542153     C1
    0.6666669847440474    0.3333329859851446    0.3973895479405563     C2
    0.3333329854322145    0.6666669831836742    0.4541070336658668    Hf1
    0.6666669847440474    0.3333329859851446    0.5458929663341249    Hf2
    0.0000000000000000    0.0000000000000000    0.5000000333970579     N1
    0.3333329854322145    0.6666669831836742    0.6496880819539865     N2
    0.6666669847440474    0.3333329859851446    0.3503119180460135     N3
