Y-Y-C-SCN-SCN
   1.000
    3.8352545959951350    0.0000000000000000    0.0000000000000000
   -1.9176272979975675    3.3214279103150313    0.0000000000000000
    0.0000000000000000    0.0000000000000000   29.7869903387699146
   C    N    S    Y 
    3    2    2    2
Direct
    0.0000000000000000    0.0000000000000000    0.5000000214801520     C1
    0.3333329854322145    0.6666669831836742    0.6578906513616998     C2
    0.6666669847440475    0.3333329859851446    0.3421093489565250     C3
    0.3333329854322145    0.6666669831836742    0.6978546708599207     N1
    0.6666669847440475    0.3333329859851446    0.3021453291400793     N2
    0.3333329854322145    0.6666669831836742    0.6016004821349146     S1
    0.6666669847440475    0.3333329859851446    0.3983995181833102     S2
    0.3333329854322145    0.6666669831836742    0.4555060908637012     Y1
    0.6666669847440475    0.3333329859851446    0.5444939091362933     Y2
