Zr-Zr-N-OCl-OH
   1.000
    3.2477624029098227    0.0000000000000000    0.0000000000000000
   -1.6238812014549118    2.8126447463766282    0.0000000000000000
    0.0000000000000000    0.0000000000000000   27.5601718639643813
   Cl   H    N    O    Zr
    1    1    1    2    2
Direct
    0.3333329854322145    0.6666669831836742    0.6734418041939816    Cl1
    0.6666669847440473    0.3333329859851446    0.3265581958060184     H1
    0.0000000000000000    0.0000000000000000    0.4611752321262198     N1
    0.3333329854322145    0.6666669831836742    0.5444164478558664     O1
    0.6666669847440473    0.3333329859851446    0.3625950034813270     O2
    0.3333329854322145    0.6666669831836742    0.4128579453375273    Zr1
    0.6666669847440473    0.3333329859851446    0.5097221671328724    Zr2
