Ti-Ti-C-OCl-H
   1.000
    3.0578404540780562    0.0000000000000000    0.0000000000000000
   -1.5289202270390281    2.6481675139533110    0.0000000000000000
    0.0000000000000000    0.0000000000000000   28.1560292669560823
   C    Cl   H    O    Ti
    1    1    1    1    2
Direct
    0.0000000000000000    0.0000000000000000    0.3948632375943618     C1
    0.3333329854322146    0.6666669831836742    0.6803526550328458    Cl1
    0.6666669847440474    0.3333329859851446    0.3196473449671542     H1
    0.3333329854322146    0.6666669831836742    0.4747613394541282     O1
    0.3333329854322146    0.6666669831836742    0.3544893238874439    Ti1
    0.6666669847440474    0.3333329859851446    0.4428847367593790    Ti2
