Hf-Hf-N-PO-Cl
   1.000
    3.3011967039534329    0.0000000000000000    0.0000000000000000
   -1.6505983519767164    2.8589202085017700    0.0000000000000000
    0.0000000000000000    0.0000000000000000   25.6266796200216689
   Cl   Hf   N    O    P 
    1    2    1    1    1
Direct
    0.6666669847440474    0.3333329859851447    0.3511964926181252    Cl1
    0.3333329854322145    0.6666669831836743    0.4216927684701351    Hf1
    0.6666669847440474    0.3333329859851447    0.5158944138729137    Hf2
    0.0000000000000000    0.0000000000000000    0.4663882111716321     N1
    0.3333329854322145    0.6666669831836743    0.6488035073818748     O1
    0.3333329854322145    0.6666669831836743    0.5904170685299814     P1
