Y-Y-C-CN-O
   1.000
    3.6258815872281454    0.0000000000000000    0.0000000000000000
   -1.8129407936140727    3.1401055656663965    0.0000000000000000
    0.0000000000000000    0.0000000000000000   24.4887919212278788
   C    N    O    Y 
    2    1    1    2
Direct
    0.0000000000000000    0.0000000000000000    0.4701542277547295     C1
    0.3333329854322146    0.6666669831836743    0.5835147182204754     C2
    0.3333329854322146    0.6666669831836743    0.6324849331502371     N1
    0.6666669847440474    0.3333329859851446    0.3675150668497630     O1
    0.3333329854322146    0.6666669831836743    0.3952231158687171     Y1
    0.6666669847440474    0.3333329859851446    0.5215383056243277     Y2
