Sc-Sc-N-F-OH
   1.000
    3.2954789039069983    0.0000000000000000    0.0000000000000000
   -1.6477394519534991    2.8539684484163672    0.0000000000000000
    0.0000000000000000    0.0000000000000000   23.8054284901096551
   F    H    N    O    Sc
    1    1    1    1    2
Direct
    0.3333329854322146    0.6666669831836742    0.6219349715238609     F1
    0.6666669847440474    0.3333329859851446    0.3780650284761391     H1
    0.0000000000000000    0.0000000000000000    0.5224356217164787     N1
    0.6666669847440474    0.3333329859851446    0.4195166183550575     O1
    0.3333329854322146    0.6666669831836742    0.4702952077292452    Sc1
    0.6666669847440474    0.3333329859851446    0.5725981502014312    Sc2
