Sc-Sc-C-F-F
   1.000
    3.2910229719161843    0.0000000000000000    0.0000000000000000
   -1.6455114859580922    2.8501094981145378    0.0000000000000000
    0.0000000000000000    0.0000000000000000   22.8203154095344871
   C    F    Sc
    1    2    2
Direct
    0.0000000000000000    0.0000000000000000    0.5000000377954856     C1
    0.3333329854322145    0.6666669831836743    0.6056145658600434     F1
    0.6666669847440474    0.3333329859851446    0.3943854341399566     F2
    0.3333329854322145    0.6666669831836743    0.4444524319286166    Sc1
    0.6666669847440474    0.3333329859851446    0.5555475675072614    Sc2
