Sc-Sc-C-OCl-O
   1.000
    3.2370229839973899    0.0000000000000000    0.0000000000000000
   -1.6185114919986949    2.8033441367746348    0.0000000000000000
    0.0000000000000000    0.0000000000000000   26.6317975216340450
   C    Cl   O    Sc
    1    1    2    2
Direct
    0.0000000000000000    0.0000000000000000    0.4294835171357954     C1
    0.3333329854322145    0.6666669831836742    0.6620581095703755    Cl1
    0.3333329854322145    0.6666669831836742    0.5206406695261439     O1
    0.6666669847440474    0.3333329859851446    0.3379418904296246     O2
    0.3333329854322145    0.6666669831836742    0.3659286477852504    Sc1
    0.6666669847440474    0.3333329859851446    0.4938056119115778    Sc2
