Sc-Sc-N-NCO-Br
   1.000
    3.3743189991845650    0.0000000000000000    0.0000000000000000
   -1.6871594995922825    2.9222459737524558    0.0000000000000000
    0.0000000000000000    0.0000000000000000   26.0278332607921996
   Br   C    N    O    Sc
    1    1    2    1    2
Direct
    0.6666669847440473    0.3333329859851446    0.3457836812546905    Br1
    0.3333329854322145    0.6666669831836742    0.6079323551005400     C1
    0.0000000000000000    0.0000000000000000    0.4634780591488671     N1
    0.3333329854322145    0.6666669831836742    0.5600493561967803     N2
    0.3333329854322145    0.6666669831836742    0.6542163187453096     O1
    0.3333329854322145    0.6666669831836742    0.4176658169933140    Sc1
    0.6666669847440473    0.3333329859851446    0.5091547745168425    Sc2
