Hf-Hf-N-NCS-OCN
   1.000
    3.3457493715124964    0.0000000000000000    0.0000000000000000
   -1.6728746857562482    2.8975039504176539    0.0000000000000000
    0.0000000000000000    0.0000000000000000   28.2986179916854965
   C    Hf   N    O    S 
    2    2    3    1    1
Direct
    0.3333329854322145    0.6666669831836742    0.6272259905615520     C1
    0.6666669847440474    0.3333329859851446    0.3599917066571937     C2
    0.3333329854322145    0.6666669831836742    0.4555230826066499    Hf1
    0.6666669847440474    0.3333329859851446    0.5355985597188869    Hf2
    0.0000000000000000    0.0000000000000000    0.4941025914633164     N1
    0.3333329854322145    0.6666669831836742    0.5824900957428669     N2
    0.6666669847440474    0.3333329859851446    0.3180367324879370     N3
    0.6666669847440474    0.3333329859851446    0.4073361506829134     O1
    0.3333329854322145    0.6666669831836742    0.6819632675120630     S1
