Ti-Ti-C-PO-H
   1.000
    3.0881016048952112    0.0000000000000000    0.0000000000000000
   -1.5440508024476056    2.6743744393078481    0.0000000000000000
    0.0000000000000000    0.0000000000000000   24.6593875926406305
   C    H    O    P    Ti
    1    1    1    1    2
Direct
    0.0000000000000000    0.0000000000000000    0.4506156100962962     C1
    0.6666669847440474    0.3333329859851446    0.3649725673919805     H1
    0.3333329854322145    0.6666669831836742    0.6350274326080194     O1
    0.3333329854322145    0.6666669831836742    0.5745773791093414     P1
    0.3333329854322145    0.6666669831836742    0.4038150649220756    Ti1
    0.6666669847440474    0.3333329859851446    0.4982737138895485    Ti2
