Sc-Sc-N-CN-OH
   1.000
    3.2774923823609399    0.0000000000000000    0.0000000000000000
   -1.6387461911804699    2.8383916638352926    0.0000000000000000
    0.0000000000000000    0.0000000000000000   25.3015082509200440
   C    H    N    O    Sc
    1    1    2    1    2
Direct
    0.3333329854322145    0.6666669831836742    0.5968638035500777     C1
    0.6666669847440475    0.3333329859851446    0.3557100197642459     H1
    0.0000000000000000    0.0000000000000000    0.4901883423053957     N1
    0.3333329854322145    0.6666669831836742    0.6442899802357540     N2
    0.6666669847440475    0.3333329859851446    0.3946368922872356     O1
    0.3333329854322145    0.6666669831836742    0.4429064390157761    Sc1
    0.6666669847440475    0.3333329859851446    0.5397568073525961    Sc2
