Hf-Hf-N-NCO-PO
   1.000
    3.2542573907822283    0.0000000000000000    0.0000000000000000
   -1.6271286953911142    2.8182695708525949    0.0000000000000000
    0.0000000000000000    0.0000000000000000   27.7777833369449034
   C    Hf   N    O    P 
    1    2    2    2    1
Direct
    0.3333329854322145    0.6666669831836742    0.6326447423856467     C1
    0.3333329854322145    0.6666669831836742    0.4472024849551720    Hf1
    0.6666669847440474    0.3333329859851446    0.5359097638118852    Hf2
    0.0000000000000000    0.0000000000000000    0.4937424329239229     N1
    0.3333329854322145    0.6666669831836742    0.5875295072216157     N2
    0.3333329854322145    0.6666669831836742    0.6760000648421124     O1
    0.6666669847440474    0.3333329859851446    0.3239999351578876     O2
    0.6666669847440474    0.3333329859851446    0.3778080118832736     P1
