 Y-Y-C-Cl-Cl                            
   1.0000000000000000     
     3.7148103930662977    0.0000000000000003   -0.0000000000000000
    -1.8574051965331493    3.2171201706768895   -0.0000000000000000
     0.0000000000000012    0.0000000000000026   25.2589518202623964
   C    Cl   Y 
     1     2     2
Direct
 -0.0000000000000000 -0.0000000000000000  0.5000000267999951
  0.3333329854322145  0.6666669831836742  0.6223451978153729
  0.6666669847440474  0.3333329859851446  0.3776548021846271
  0.3333329854322145  0.6666669831836742  0.4467452779521341
  0.6666669847440474  0.3333329859851446  0.5532547216478588

  0.00000000E+00  0.00000000E+00  0.00000000E+00
  0.00000000E+00  0.00000000E+00  0.00000000E+00
  0.00000000E+00  0.00000000E+00  0.00000000E+00
  0.00000000E+00  0.00000000E+00  0.00000000E+00
  0.00000000E+00  0.00000000E+00  0.00000000E+00
