Y-Y-N-NCO-SCN
   1.000
    3.6393357121659320    0.0000000000000000    0.0000000000000000
   -1.8196678560829660    3.1517571796410628    0.0000000000000000
    0.0000000000000000    0.0000000000000000   29.0747154117593389
   C    N    O    S    Y 
    2    3    1    1    2
Direct
    0.3333329854322145    0.6666669831836742    0.6490101369171880     C1
    0.6666669847440475    0.3333329859851446    0.3504811811721580     C2
    0.0000000000000000    0.0000000000000000    0.5147660362667132     N1
    0.3333329854322145    0.6666669831836742    0.6060976031580322     N2
    0.6666669847440475    0.3333329859851446    0.3095473119011143     N3
    0.3333329854322145    0.6666669831836742    0.6904526880988857     O1
    0.6666669847440475    0.3333329859851446    0.4081989447953858     S1
    0.3333329854322145    0.6666669831836742    0.4679688284233774     Y1
    0.6666669847440475    0.3333329859851446    0.5578008144766146     Y2
