Y-Y-N-CN-H
   1.000
    3.5445291682580415    0.0000000000000000    0.0000000000000000
   -1.7722645841290208    3.0696523041644914    0.0000000000000000
    0.0000000000000000    0.0000000000000000   24.4197391466466414
   C    H    N    Y 
    1    1    2    2
Direct
    0.3333329854322145    0.6666669831836742    0.5823240857175342     C1
    0.6666669847440475    0.3333329859851446    0.3685543054310593     H1
    0.0000000000000000    0.0000000000000000    0.4653429387414922     N1
    0.3333329854322145    0.6666669831836742    0.6314456945689407     N2
    0.3333329854322145    0.6666669831836742    0.4103307578643012     Y1
    0.6666669847440475    0.3333329859851446    0.5196211940453618     Y2
