Y-Y-C-F-F
   1.000
    3.5961942017977298    0.0000000000000000    0.0000000000000000
   -1.7980971008988649    3.1143955357044670    0.0000000000000000
    0.0000000000000000    0.0000000000000000   23.0943760871640791
   C    F    Y 
    1    2    2
Direct
    0.0000000000000000    0.0000000000000000    0.5000000312774179     C1
    0.3333329854322146    0.6666669831836742    0.6102947329673813     F1
    0.6666669847440474    0.3333329859851445    0.3897052670326186     F2
    0.3333329854322146    0.6666669831836742    0.4405333577776799     Y1
    0.6666669847440474    0.3333329859851445    0.5594666417554846     Y2
