Sc-Sc-N-F-Br
   1.000
    3.3775791374463315    0.0000000000000000    0.0000000000000000
   -1.6887895687231658    2.9250693363173639    0.0000000000000000
    0.0000000000000000    0.0000000000000000   23.3707029469413996
   Br   F    N    Sc
    1    1    1    2
Direct
    0.6666669847440474    0.3333329859851446    0.3850975308886830    Br1
    0.3333329854322145    0.6666669831836742    0.6149024691113170     F1
    0.0000000000000000    0.0000000000000000    0.5170379373771381     N1
    0.3333329854322145    0.6666669831836742    0.4648978790081010    Sc1
    0.6666669847440474    0.3333329859851446    0.5666312387472803    Sc2
