 Sc-Sc-C-O-Br                           
   1.0000000000000000     
     3.4449346373067131    0.0000000000000001    0.0000000000000000
    -1.7224673186533568    2.9834009102793009    0.0000000000000000
     0.0000000000000021    0.0000000000000035   29.3715358089986260
   C    Br   O    Sc
     1     1     1     2
Direct
 -0.0000000000000000 -0.0000000000000000  0.5138196798219860
  0.6666669847440474  0.3333329859851446  0.4121379728456384
 -0.0000000000000000 -0.0000000000000000  0.5870296831666532
  0.3333329854322145  0.6666669831836742  0.4760180990743144
  0.6666669847440474  0.3333329859851446  0.5634087508938206

  0.00000000E+00  0.00000000E+00  0.00000000E+00
  0.00000000E+00  0.00000000E+00  0.00000000E+00
  0.00000000E+00  0.00000000E+00  0.00000000E+00
  0.00000000E+00  0.00000000E+00  0.00000000E+00
  0.00000000E+00  0.00000000E+00  0.00000000E+00
