Y-Y-N-NO-Cl
   1.000
    3.6561048414957673    0.0000000000000000    0.0000000000000000
   -1.8280524207478837    3.1662796716490220    0.0000000000000000
    0.0000000000000000    0.0000000000000000   24.8091288638195060
   Cl   N    O    Y 
    1    2    1    2
Direct
    0.6666669847440474    0.3333329859851446    0.3627696905200565    Cl1
    0.0000000000000000    0.0000000000000000    0.4792535772291396     N1
    0.3333329854322144    0.6666669831836742    0.5829038515454379     N2
    0.3333329854322144    0.6666669831836742    0.6372303094799435     O1
    0.3333329854322144    0.6666669831836742    0.4348913855612714     Y1
    0.6666669847440474    0.3333329859851446    0.5483209665889391     Y2
