Zr-Zr-N-OH-OCN
   1.000
    3.3628852929830151    0.0000000000000000    0.0000000000000000
   -1.6814426464915075    2.9123440937390952    0.0000000000000000
    0.0000000000000000    0.0000000000000000   26.5408985691839270
   C    H    N    O    Zr
    1    1    2    2    2
Direct
    0.6666669847440474    0.3333329859851447    0.3838502683610381     C1
    0.3333329854322146    0.6666669831836742    0.6609007047542199     H1
    0.0000000000000000    0.0000000000000000    0.5298709411247253     N1
    0.6666669847440474    0.3333329859851447    0.3390992952457800     N2
    0.3333329854322146    0.6666669831836742    0.6236772284358703     O1
    0.6666669847440474    0.3333329859851447    0.4341498728134647     O2
    0.3333329854322146    0.6666669831836742    0.4863115063592260    Zr1
    0.6666669847440474    0.3333329859851447    0.5738095977983468    Zr2
