Sc-Sc-C-NO-OCN
   1.000
    3.3720369210478358    0.0000000000000000    0.0000000000000000
   -1.6860184605239179    2.9202696361274549    0.0000000000000000
    0.0000000000000000    0.0000000000000000   26.8066021764876901
   C    N    O    Sc
    2    2    2    2
Direct
    0.0000000000000000    0.0000000000000000    0.5219553877637944     C1
    0.6666669847440473    0.3333329859851446    0.3800763200249404     C2
    0.3333329854322145    0.6666669831836742    0.6162196687534021     N1
    0.6666669847440473    0.3333329859851446    0.3357381864641533     N2
    0.3333329854322145    0.6666669831836742    0.6642618135358467     O1
    0.6666669847440473    0.3333329859851446    0.4299310855041504     O2
    0.3333329854322145    0.6666669831836742    0.4756738651388198    Sc1
    0.6666669847440473    0.3333329859851446    0.5696259169269027    Sc2
