Ti-Ti-C-NCO-SCN
   1.000
    3.2712391469844677    0.0000000000000000    0.0000000000000000
   -1.6356195734922339    2.8329762031370156    0.0000000000000000
    0.0000000000000000    0.0000000000000000   28.3881455067196740
   C    N    O    S    Ti
    3    2    1    1    2
Direct
    0.0000000000000000    0.0000000000000000    0.5122658699101961     C1
    0.3333329854322145    0.6666669831836742    0.6405557559600847     C2
    0.6666669847440474    0.3333329859851447    0.3589868147755211     C3
    0.3333329854322145    0.6666669831836742    0.5965969756426497     N1
    0.6666669847440474    0.3333329859851447    0.3170337420550995     N2
    0.3333329854322145    0.6666669831836742    0.6829662579449005     O1
    0.6666669847440474    0.3333329859851447    0.4180452274627257     S1
    0.3333329854322145    0.6666669831836742    0.4731276094564200    Ti1
    0.6666669847440474    0.3333329859851447    0.5498406089323962    Ti2
