Hf-Hf-N-NO-OH
   1.000
    3.2799023846313857    0.0000000000000000    0.0000000000000000
   -1.6399511923156929    2.8404787870150945    0.0000000000000000
    0.0000000000000000    0.0000000000000000   25.2287333254919623
   H    Hf   N    O 
    1    2    2    2
Direct
    0.6666669847440475    0.3333329859851447    0.3567361025971960     H1
    0.3333329854322146    0.6666669831836742    0.4483806694903502    Hf1
    0.6666669847440475    0.3333329859851447    0.5466452725457824    Hf2
    0.0000000000000000    0.0000000000000000    0.4932609876105886     N1
    0.3333329854322146    0.6666669831836742    0.5903146412148941     N2
    0.3333329854322146    0.6666669831836742    0.6432638974028040     O1
    0.6666669847440475    0.3333329859851447    0.3961828466213311     O2
