Hf-Hf-N-NCO-Br
   1.000
    3.3896244886613216    0.0000000000000000    0.0000000000000000
   -1.6948122443306608    2.9355009164688215    0.0000000000000000
    0.0000000000000000    0.0000000000000000   26.0285494307912408
   Br   C    Hf   N    O 
    1    1    2    2    1
Direct
    0.6666669847440474    0.3333329859851446    0.3457741670902791    Br1
    0.3333329854322145    0.6666669831836742    0.6079069255858184     C1
    0.3333329854322145    0.6666669831836742    0.4207186078263759    Hf1
    0.6666669847440474    0.3333329859851446    0.5064181912236750    Hf2
    0.0000000000000000    0.0000000000000000    0.4642271901812735     N1
    0.3333329854322145    0.6666669831836742    0.5598377944446673     N2
    0.3333329854322145    0.6666669831836742    0.6542258329097208     O1
