Ti-Ti-C-O-OH
   1.000
    3.0838639986420544    0.0000000000000000    0.0000000000000000
   -1.5419319993210272    2.6707045646406926    0.0000000000000000
    0.0000000000000000    0.0000000000000000   23.6315109256008533
   C    H    O    Ti
    1    1    2    2
Direct
    0.0000000000000000    0.0000000000000000    0.5241046065636529     C1
    0.6666669847440474    0.3333329859851446    0.3808474214084204     H1
    0.3333329854322145    0.6666669831836742    0.6191525785915795     O1
    0.6666669847440474    0.3333329859851446    0.4225613483227088     O2
    0.3333329854322145    0.6666669831836742    0.4759200726229083    Ti1
    0.6666669847440474    0.3333329859851446    0.5803321125717555    Ti2
