Sc-Sc-N-Cl-OCN
   1.000
    3.3333075608364187    0.0000000000000000    0.0000000000000000
   -1.6666537804182093    2.8867290263106709    0.0000000000000000
    0.0000000000000000    0.0000000000000000   25.8596931668599801
   C    Cl   N    O    Sc
    1    1    2    1    2
Direct
    0.6666669847440474    0.3333329859851446    0.3939685199644662     C1
    0.3333329854322145    0.6666669831836741    0.6519680283162141    Cl1
    0.0000000000000000    0.0000000000000000    0.5394169650130189     N1
    0.6666669847440474    0.3333329859851446    0.3480319716837857     N2
    0.6666669847440474    0.3333329859851446    0.4456701588970904     O1
    0.3333329854322145    0.6666669831836741    0.4938040641472501    Sc1
    0.6666669847440474    0.3333329859851446    0.5864383173031935    Sc2
