Zr-Zr-N-F-OCN
   1.000
    3.3914552414438317    0.0000000000000000    0.0000000000000000
   -1.6957276207219159    2.9370863948863750    0.0000000000000000
    0.0000000000000000    0.0000000000000000   25.4824058898824966
   C    F    N    O    Zr
    1    1    2    1    2
Direct
    0.6666669847440474    0.3333329859851446    0.3998050873365705     C1
    0.3333329854322145    0.6666669831836742    0.6468151383000555     F1
    0.0000000000000000    0.0000000000000000    0.5517221747306732     N1
    0.6666669847440474    0.3333329859851446    0.3531848616999445     N2
    0.6666669847440474    0.3333329859851446    0.4522266578875573     O1
    0.3333329854322145    0.6666669831836742    0.5060406605136256    Zr1
    0.6666669847440474    0.3333329859851446    0.5959380252688209    Zr2
