Ti-Ti-N-CN-O
   1.000
    3.0865716402284398    0.0000000000000000    0.0000000000000000
   -1.5432858201142199    2.6730494510634006    0.0000000000000000
    0.0000000000000000    0.0000000000000000   23.9242105721661495
   C    N    O    Ti
    1    2    1    2
Direct
    0.3333329854322145    0.6666669831836742    0.5734189873912218     C1
    0.0000000000000000    0.0000000000000000    0.4662622262623121     N1
    0.3333329854322145    0.6666669831836742    0.6238120387357415     N2
    0.6666669847440473    0.3333329859851446    0.3761879612642584     O1
    0.3333329854322145    0.6666669831836742    0.4141270641188164    Ti1
    0.6666669847440473    0.3333329859851446    0.5148694011796137    Ti2
