Sc-Sc-C-Cl-Br
   1.000
    3.4899537943907699    0.0000000000000000    0.0000000000000000
   -1.7449768971953850    3.0223886439764001    0.0000000000000000
    0.0000000000000000    0.0000000000000000   23.9578367160668435
   Br   C    Cl   Sc
    1    1    1    2
Direct
    0.6666669847440475    0.3333329859851446    0.3756599607327790    Br1
    0.0000000000000000    0.0000000000000000    0.5038314368079440     C1
    0.3333329854322145    0.6666669831836742    0.6243400392672210    Cl1
    0.3333329854322145    0.6666669831836742    0.4530043732287903    Sc1
    0.6666669847440475    0.3333329859851446    0.5550926304921058    Sc2
