Y-Y-C-NCO-Cl
   1.000
    3.6807814874170943    0.0000000000000000    0.0000000000000000
   -1.8403907437085472    3.1876502739120007    0.0000000000000000
    0.0000000000000000    0.0000000000000000   26.3313570856365757
   C    Cl   N    O    Y 
    2    1    1    1    2
Direct
    0.0000000000000000    0.0000000000000000    0.4603572085094025     C1
    0.3333329854322145    0.6666669831836742    0.6123698014240913     C2
    0.6666669847440474    0.3333329859851446    0.3417978029286378    Cl1
    0.3333329854322145    0.6666669831836742    0.5650358409064951     N1
    0.3333329854322145    0.6666669831836742    0.6582021970713622     O1
    0.3333329854322145    0.6666669831836742    0.4088362968140080     Y1
    0.6666669847440474    0.3333329859851446    0.5120137749796231     Y2
