Zr-Zr-N-OH-OH
   1.000
    3.3053956836279581    0.0000000000000000    0.0000000000000000
   -1.6526978418139791    2.8625566315773248    0.0000000000000000
    0.0000000000000000    0.0000000000000000   25.0827319746752693
   H    N    O    Zr
    2    1    2    2
Direct
    0.3333329854322146    0.6666669831836742    0.6411874109611810     H1
    0.6666669847440473    0.3333329859851446    0.3588125890388190     H2
    0.0000000000000000    0.0000000000000000    0.5000000340880147     N1
    0.3333329854322146    0.6666669831836742    0.6016678524863944     O1
    0.6666669847440473    0.3333329859851446    0.3983321475136148     O2
    0.3333329854322146    0.6666669831836742    0.4518694524252603    Zr1
    0.6666669847440473    0.3333329859851446    0.5481305470659633    Zr2
