Sc-Sc-N-NO-OCl
   1.000
    3.2875869028309639    0.0000000000000000    0.0000000000000000
   -1.6437934514154819    2.8471337750006520    0.0000000000000000
    0.0000000000000000    0.0000000000000000   27.6777238546305995
   Cl   N    O    Sc
    1    2    2    2
Direct
    0.6666669847440474    0.3333329859851446    0.3251712477250640    Cl1
    0.0000000000000000    0.0000000000000000    0.5418546219626361     N1
    0.3333329854322145    0.6666669831836742    0.6287016240801822     N2
    0.3333329854322145    0.6666669831836742    0.6748287522749360     O1
    0.6666669847440474    0.3333329859851446    0.4593489619481889     O2
    0.3333329854322145    0.6666669831836742    0.4827563596356785    Sc1
    0.6666669847440474    0.3333329859851446    0.5778499880530306    Sc2
