Zr-Zr-C-Cl-Br
   1.000
    3.4875323479202995    0.0000000000000000    0.0000000000000000
   -1.7437661739601498    3.0202916098139951    0.0000000000000000
    0.0000000000000000    0.0000000000000000   24.1339192641205855
   Br   C    Cl   Zr
    1    1    1    2
Direct
    0.6666669847440474    0.3333329859851446    0.3729191227294822    Br1
    0.0000000000000000    0.0000000000000000    0.5039066837608768     C1
    0.3333329854322146    0.6666669831836743    0.6270808772705179    Cl1
    0.3333329854322146    0.6666669831836743    0.4544196672358854    Zr1
    0.6666669847440474    0.3333329859851446    0.5530826353560516    Zr2
