Ti-Ti-N-NCS-OCN
   1.000
    3.2069472036020721    0.0000000000000000    0.0000000000000000
   -1.6034736018010360    2.7772977469099054    0.0000000000000000
    0.0000000000000000    0.0000000000000000   27.9711469914482862
   C    N    O    S    Ti
    2    3    1    1    2
Direct
    0.3333329854322145    0.6666669831836742    0.6228509098789301     C1
    0.6666669847440474    0.3333329859851446    0.3642213922082155     C2
    0.0000000000000000    0.0000000000000000    0.4938803743480493     N1
    0.3333329854322145    0.6666669831836742    0.5780327697549235     N2
    0.6666669847440474    0.3333329859851446    0.3217601338533455     N3
    0.6666669847440474    0.3333329859851446    0.4119433498471274     O1
    0.3333329854322145    0.6666669831836742    0.6782398661466545     S1
    0.3333329854322145    0.6666669831836742    0.4577595696823892    Ti1
    0.6666669847440474    0.3333329859851446    0.5323686965338377    Ti2
