 La-La-C-O-O                            
   1.0000000000000000     
     3.9985054555577926    0.0000000000000001   -0.0000000000000001
    -1.9992527277788967    3.4628073016842689   -0.0000000000000000
     0.0000000000000020    0.0000000000000036   21.8018447414391545
   C    O    La
     1     2     2
Direct
 -0.0000000000000000 -0.0000000000000000  0.4857449969210526
  0.3333329854322145  0.6666669831836742  0.5960584348425164
  0.0000000000000000  0.0000000000000000  0.4117919268023415
  0.3333329854322145  0.6666669831836742  0.4356943650669254
  0.6666669847440474  0.3333329859851446  0.5707103027671450

  0.00000000E+00  0.00000000E+00  0.00000000E+00
  0.00000000E+00  0.00000000E+00  0.00000000E+00
  0.00000000E+00  0.00000000E+00  0.00000000E+00
  0.00000000E+00  0.00000000E+00  0.00000000E+00
  0.00000000E+00  0.00000000E+00  0.00000000E+00
