Sc-Sc-N-CN-SCN
   1.000
    3.4200306451029903    0.0000000000000000    0.0000000000000000
   -1.7100153225514951    2.9618334203608132    0.0000000000000000
    0.0000000000000000    0.0000000000000000   27.4650267398499821
   C    N    S    Sc
    2    3    1    2
Direct
    0.3333329854322145    0.6666669831836742    0.6286182070110939     C1
    0.6666669847440474    0.3333329859851446    0.3710322400459247     C2
    0.0000000000000000    0.0000000000000000    0.5347464680062923     N1
    0.3333329854322145    0.6666669831836742    0.6723105320359444     N2
    0.6666669847440474    0.3333329859851446    0.3276894679640556     N3
    0.6666669847440474    0.3333329859851446    0.4320124363124232     S1
    0.3333329854322145    0.6666669831836742    0.4911413599430505    Sc1
    0.6666669847440474    0.3333329859851446    0.5775830618305153    Sc2
