Sc-Sc-N-OCl-SCN
   1.000
    3.3651028076084639    0.0000000000000000    0.0000000000000000
   -1.6825514038042320    2.9142645177348112    0.0000000000000000
    0.0000000000000000    0.0000000000000000   29.2946635509707427
   C    Cl   N    O    S    Sc
    1    1    2    1    1    2
Direct
    0.6666669847440473    0.3333329859851446    0.3479128618004835     C1
    0.3333329854322144    0.6666669831836742    0.6927768095257143    Cl1
    0.0000000000000000    0.0000000000000000    0.4962422387067564     N1
    0.6666669847440473    0.3333329859851446    0.3072231904742857     N2
    0.3333329854322144    0.6666669831836742    0.5720083873943120     O1
    0.6666669847440473    0.3333329859851446    0.4046922162054648     S1
    0.3333329854322144    0.6666669831836742    0.4643124181147231    Sc1
    0.6666669847440473    0.3333329859851446    0.5526518817767929    Sc2
