Ti-Ti-C-O-Br
   1.000
    3.1714985199896311    0.0000000000000000    0.0000000000000000
   -1.5857492599948155    2.7465982863740801    0.0000000000000000
    0.0000000000000000    0.0000000000000000   23.1646895212714234
   Br   C    O    Ti
    1    1    1    2
Direct
    0.6666669847440474    0.3333329859851446    0.3885223668435346    Br1
    0.0000000000000000    0.0000000000000000    0.5161219098730303     C1
    0.3333329854322146    0.6666669831836742    0.6114776331564653     O1
    0.3333329854322146    0.6666669831836742    0.4692850247837751    Ti1
    0.6666669847440474    0.3333329859851446    0.5739355737922612    Ti2
