Sc-Sc-N-CN-NCS
   1.000
    3.3432179459700544    0.0000000000000000    0.0000000000000000
   -1.6716089729850272    2.8953116715771916    0.0000000000000000
    0.0000000000000000    0.0000000000000000   27.1347778940210951
   C    N    S    Sc
    2    3    1    2
Direct
    0.3333329854322145    0.6666669831836742    0.6240998732768147     C1
    0.6666669847440475    0.3333329859851446    0.3888787472575685     C2
    0.0000000000000000    0.0000000000000000    0.5269056526506494     N1
    0.3333329854322145    0.6666669831836742    0.6683223266042259     N2
    0.6666669847440475    0.3333329859851446    0.4350328312529149     N3
    0.6666669847440475    0.3333329859851446    0.3316776733957741     S1
    0.3333329854322145    0.6666669831836742    0.4818535525500188    Sc1
    0.6666669847440475    0.3333329859851446    0.5715255771697834    Sc2
