Zr-Zr-N-O-Cl
   1.000
    3.3073829258843972    0.0000000000000000    0.0000000000000000
   -1.6536914629421986    2.8642776338540807    0.0000000000000000
    0.0000000000000000    0.0000000000000000   23.4227567499420992
   Cl   N    O    Zr
    1    1    1    2
Direct
    0.6666669847440474    0.3333329859851446    0.3842417054526363    Cl1
    0.0000000000000000    0.0000000000000000    0.5191221631376554     N1
    0.3333329854322145    0.6666669831836743    0.6157582945473639     O1
    0.3333329854322145    0.6666669831836743    0.4624707747997758    Zr1
    0.6666669847440474    0.3333329859851446    0.5741815225735126    Zr2
