Ti-Ti-C-Cl-Cl
   1.000
    3.2421348702260393    0.0000000000000000    0.0000000000000000
   -1.6210674351130197    2.8077711601018653    0.0000000000000000
    0.0000000000000000    0.0000000000000000   23.5346754335761688
   C    Cl   Ti
    1    2    2
Direct
    0.0000000000000000    0.0000000000000000    0.5000000377618300     C1
    0.3333329854322145    0.6666669831836742    0.6175855483793931    Cl1
    0.6666669847440473    0.3333329859851446    0.3824144516206069    Cl2
    0.3333329854322145    0.6666669831836742    0.4536593698340473    Ti1
    0.6666669847440473    0.3333329859851446    0.5463406296023332    Ti2
