Sc-Sc-C-O-F
   1.000
    3.3261952045621554    0.0000000000000000    0.0000000000000000
   -1.6630976022810777    2.8805695450905962    0.0000000000000000
    0.0000000000000000    0.0000000000000000   22.7613709711732000
   C    F    O    Sc
    1    1    1    2
Direct
    0.0000000000000000    0.0000000000000000    0.4994681794871598     C1
    0.6666669847440474    0.3333329859851445    0.3954067622463651     F1
    0.3333329854322145    0.6666669831836742    0.6045932377536349     O1
    0.3333329854322145    0.6666669831836742    0.4461102090829338    Sc1
    0.6666669847440474    0.3333329859851445    0.5740380642095626    Sc2
