Y-Y-N-Br-H
   1.000
    3.5897059442258343    0.0000000000000000    0.0000000000000000
   -1.7948529721129172    3.1087765398227405    0.0000000000000000
    0.0000000000000000    0.0000000000000000   23.6207231814525755
   Br   H    N    Y 
    1    1    1    2
Direct
    0.3333329854322145    0.6666669831836742    0.6189786429965463    Br1
    0.6666669847440474    0.3333329859851446    0.3810213570034539     H1
    0.0000000000000000    0.0000000000000000    0.4803402271659563     N1
    0.3333329854322145    0.6666669831836742    0.4232720805723581     Y1
    0.6666669847440474    0.3333329859851446    0.5347086211842290     Y2
