Y-Y-C-O-OH
   1.000
    3.5740102884980511    0.0000000000000000    0.0000000000000000
   -1.7870051442490256    3.0951837032352438    0.0000000000000000
    0.0000000000000000    0.0000000000000000   24.1633394983763345
   C    H    O    Y 
    1    1    2    2
Direct
    0.0000000000000000    0.0000000000000000    0.5216972562604573     C1
    0.6666669847440473    0.3333329859851445    0.3724650725784305     H1
    0.3333329854322146    0.6666669831836743    0.6275349274215695     O1
    0.6666669847440473    0.3333329859851445    0.4132510766776350     O2
    0.3333329854322146    0.6666669831836743    0.4682255860400587     Y1
    0.6666669847440473    0.3333329859851445    0.5974933191531903     Y2
