Y-Y-N-OH-OCN
   1.000
    3.5280099602339128    0.0000000000000000    0.0000000000000000
   -1.7640049801169564    3.0553462503627840    0.0000000000000000
    0.0000000000000000    0.0000000000000000   26.8106168272671823
   C    H    N    O    Y 
    1    1    2    2    2
Direct
    0.6666669847440474    0.3333329859851446    0.3800141301189017     C1
    0.3333329854322145    0.6666669831836741    0.6643120873352404     H1
    0.0000000000000000    0.0000000000000000    0.5288117109966932     N1
    0.6666669847440474    0.3333329859851446    0.3356879126647597     N2
    0.3333329854322145    0.6666669831836741    0.6275364819188927     O1
    0.6666669847440474    0.3333329859851446    0.4297367463771976     O2
    0.3333329854322145    0.6666669831836741    0.4798048404054818     Y1
    0.6666669847440474    0.3333329859851446    0.5786994100326872     Y2
