Sc-Sc-N-OCl-OCl
   1.000
    3.2301596425826173    0.0000000000000000    0.0000000000000000
   -1.6150798212913087    2.7974003087324366    0.0000000000000000
    0.0000000000000000    0.0000000000000000   30.7382674550119717
   Cl   N    O    Sc
    2    1    2    2
Direct
    0.3333329854322145    0.6666669831836742    0.7072053584941880    Cl1
    0.6666669847440474    0.3333329859851447    0.2927946415058120    Cl2
    0.0000000000000000    0.0000000000000000    0.5000000291270230     N1
    0.3333329854322145    0.6666669831836742    0.5720962287969680     O1
    0.6666669847440474    0.3333329859851447    0.4279037712030396     O2
    0.3333329854322145    0.6666669831836742    0.4534789286346258    Sc1
    0.6666669847440474    0.3333329859851447    0.5465210709306425    Sc2
