Zr-Zr-C-OCl-OH
   1.000
    3.3103315728940190    0.0000000000000000    0.0000000000000000
   -1.6551657864470095    2.8668312370758873    0.0000000000000000
    0.0000000000000000    0.0000000000000000   27.4001672523536968
   C    Cl   H    O    Zr
    1    1    1    2    2
Direct
    0.0000000000000000    0.0000000000000000    0.4592543740603911     C1
    0.3333329854322145    0.6666669831836742    0.6715348516996045    Cl1
    0.6666669847440474    0.3333329859851446    0.3284651483003956     H1
    0.3333329854322145    0.6666669831836742    0.5456380797249309     O1
    0.6666669847440474    0.3333329859851446    0.3644582143643726     O2
    0.3333329854322145    0.6666669831836742    0.4138433323935196    Zr1
    0.6666669847440474    0.3333329859851446    0.5124916596359173    Zr2
