Y-Y-C-NCO-H
   1.000
    3.6214735562920728    0.0000000000000000    0.0000000000000000
   -1.8107367781460364    3.1362880988867290    0.0000000000000000
    0.0000000000000000    0.0000000000000000   25.6594454682742885
   C    H    N    O    Y 
    2    1    1    1    2
Direct
    0.0000000000000000    0.0000000000000000    0.4450103493851286     C1
    0.3333329854322145    0.6666669831836743    0.6022238500886454     C2
    0.6666669847440473    0.3333329859851447    0.3507480319918734     H1
    0.3333329854322145    0.6666669831836743    0.5536876135168176     N1
    0.3333329854322145    0.6666669831836743    0.6492519680081266     O1
    0.3333329854322145    0.6666669831836743    0.3916410380784423     Y1
    0.6666669847440473    0.3333329859851447    0.4983226433563524     Y2
