Hf-Hf-C-PO-F
   1.000
    3.3220525378315502    0.0000000000000000    0.0000000000000000
   -1.6610262689157751    2.8769818904678983    0.0000000000000000
    0.0000000000000000    0.0000000000000000   25.1986011375998586
   C    F    Hf   O    P 
    1    1    2    1    1
Direct
    0.0000000000000000    0.0000000000000000    0.4544984316853046     C1
    0.6666669847440475    0.3333329859851446    0.3571626833908147     F1
    0.3333329854322145    0.6666669831836742    0.4088047203647041    Hf1
    0.6666669847440475    0.3333329859851446    0.5061093231628868    Hf2
    0.3333329854322145    0.6666669831836742    0.6428373166091854     O1
    0.3333329854322145    0.6666669831836742    0.5835394535419046     P1
