Zr-Zr-N-NCS-H
   1.000
    3.3656629695717348    0.0000000000000000    0.0000000000000000
   -1.6828314847858674    2.9147496322256981    0.0000000000000000
    0.0000000000000000    0.0000000000000000   25.5709912257745948
   C    H    N    S    Zr
    1    1    2    1    2
Direct
    0.3333329854322145    0.6666669831836743    0.5873254587746236     C1
    0.6666669847440474    0.3333329859851447    0.3519613268228859     H1
    0.0000000000000000    0.0000000000000000    0.4374909799600940     N1
    0.3333329854322145    0.6666669831836743    0.5382548210675192     N2
    0.3333329854322145    0.6666669831836743    0.6480386731771142     S1
    0.3333329854322145    0.6666669831836743    0.3914016629400576    Zr1
    0.6666669847440474    0.3333329859851447    0.4837005125369492    Zr2
