Zr-Zr-C-O-H
   1.000
    3.3102417115768605    0.0000000000000000    0.0000000000000000
   -1.6551208557884303    2.8667534148889997    0.0000000000000000
    0.0000000000000000    0.0000000000000000   22.6947704409677051
   C    H    O    Zr
    1    1    1    2
Direct
    0.0000000000000000    0.0000000000000000    0.4977801558109547     C1
    0.6666669847440474    0.3333329859851445    0.3965671308908045     H1
    0.3333329854322145    0.6666669831836742    0.6034328691091955     O1
    0.3333329854322145    0.6666669831836742    0.4420942815873776    Zr1
    0.6666669847440474    0.3333329859851445    0.5607590580588449    Zr2
