Sc-Sc-C-Cl-H
   1.000
    3.3787679578041336    0.0000000000000000    0.0000000000000000
   -1.6893839789020668    2.9260988849466005    0.0000000000000000
    0.0000000000000000    0.0000000000000000   23.1756453211482594
   C    Cl   H    Sc
    1    1    1    2
Direct
    0.0000000000000000    0.0000000000000000    0.4846506852701129     C1
    0.3333329854322145    0.6666669831836742    0.6116612989504412    Cl1
    0.6666669847440474    0.3333329859851446    0.3883387010495588     H1
    0.3333329854322145    0.6666669831836742    0.4311299062827324    Sc1
    0.6666669847440474    0.3333329859851446    0.5383925847468168    Sc2
