Sc-Sc-N-NO-OCN
   1.000
    3.3079042208254084    0.0000000000000000    0.0000000000000000
   -1.6539521104127042    2.8647290885242849    0.0000000000000000
    0.0000000000000000    0.0000000000000000   26.6837287161570593
   C    N    O    Sc
    1    3    2    2
Direct
    0.6666669847440474    0.3333329859851446    0.3817955649819269     C1
    0.0000000000000000    0.0000000000000000    0.5193321382047018     N1
    0.3333329854322144    0.6666669831836742    0.6132377320944401     N2
    0.6666669847440474    0.3333329859851446    0.3372841965130038     N3
    0.3333329854322144    0.6666669831836742    0.6627158034869962     O1
    0.6666669847440474    0.3333329859851446    0.4319131122164520     O2
    0.3333329854322144    0.6666669831836742    0.4792955236359235    Sc1
    0.6666669847440474    0.3333329859851446    0.5757469236426389    Sc2
