Y-Y-C-CN-NO
   1.000
    3.6937570342223096    0.0000000000000000    0.0000000000000000
   -1.8468785171111548    3.1988874270684451    0.0000000000000000
    0.0000000000000000    0.0000000000000000   25.9618794100898569
   C    N    O    Y 
    2    2    1    2
Direct
    0.0000000000000000    0.0000000000000000    0.4986168772814307     C1
    0.3333329854322146    0.6666669831836742    0.6071256258688118     C2
    0.3333329854322146    0.6666669831836742    0.6533378859890155     N1
    0.6666669847440474    0.3333329859851446    0.3965636220965983     N2
    0.6666669847440474    0.3333329859851446    0.3466621140109845     O1
    0.3333329854322146    0.6666669831836742    0.4447991035772387     Y1
    0.6666669847440474    0.3333329859851446    0.5503979809601125     Y2
