Zr-Zr-N-CN-F
   1.000
    3.3943828616848979    0.0000000000000000    0.0000000000000000
   -1.6971914308424489    2.9396217883840725    0.0000000000000000
    0.0000000000000000    0.0000000000000000   24.3232033723513297
   C    F    N    Zr
    1    1    2    2
Direct
    0.3333329854322145    0.6666669831836742    0.5804640260398731     C1
    0.6666669847440474    0.3333329859851446    0.3700170517108153     F1
    0.0000000000000000    0.0000000000000000    0.4694717078518863     N1
    0.3333329854322145    0.6666669831836742    0.6299829482891848     N2
    0.3333329854322145    0.6666669831836742    0.4237535032424623    Zr1
    0.6666669847440474    0.3333329859851446    0.5190872202409773    Zr2
