 Y-Y-C-Cl-H                             
   1.0000000000000000     
     3.6534439624577595   -0.0000000000000001   -0.0000000000000000
    -1.8267219812288804    3.1639752828080283    0.0000000000000000
     0.0000000000000013    0.0000000000000028   26.1146210138403561
   C    Cl   H    Y 
     1     1     1     2
Direct
  0.0000000000000000  0.0000000000000000  0.4859646808662745
  0.3333329854322145  0.6666669831836742  0.6056237645085050
  0.6666669847440474  0.3333329859851446  0.3940913658341643
  0.3333329854322145  0.6666669831836742  0.4339553980816901
  0.6666669847440474  0.3333329859851446  0.5377352284798235

  0.00000000E+00  0.00000000E+00  0.00000000E+00
  0.00000000E+00  0.00000000E+00  0.00000000E+00
  0.00000000E+00  0.00000000E+00  0.00000000E+00
  0.00000000E+00  0.00000000E+00  0.00000000E+00
  0.00000000E+00  0.00000000E+00  0.00000000E+00
