Zr-Zr-C-OCl-OCN
   1.000
    3.3230927401080987    0.0000000000000000    0.0000000000000000
   -1.6615463700540494    2.8778827320532221    0.0000000000000000
    0.0000000000000000    0.0000000000000000   28.9248112487360487
   C    Cl   N    O    Zr
    2    1    1    2    2
Direct
    0.0000000000000000    0.0000000000000000    0.4892725642554842     C1
    0.6666669847440474    0.3333329859851446    0.3522218184754742     C2
    0.3333329854322145    0.6666669831836742    0.6888484449352015    Cl1
    0.6666669847440474    0.3333329859851446    0.3111515550647985     N1
    0.3333329854322145    0.6666669831836742    0.5708497100702825     O1
    0.6666669847440474    0.3333329859851446    0.3984479510098308     O2
    0.3333329854322145    0.6666669831836742    0.4466957993172432    Zr1
    0.6666669847440474    0.3333329859851446    0.5397286184318653    Zr2
