Sc-Sc-C-OH-OCN
   1.000
    3.3417118343601819    0.0000000000000000    0.0000000000000000
   -1.6708559171800910    2.8940073406782867    0.0000000000000000
    0.0000000000000000    0.0000000000000000   26.4831719058713588
   C    H    N    O    Sc
    2    1    1    2    2
Direct
    0.0000000000000000    0.0000000000000000    0.5290861661023648     C1
    0.6666669847440474    0.3333329859851446    0.3846932278248667     C2
    0.3333329854322145    0.6666669831836742    0.6601615534578512     H1
    0.6666669847440474    0.3333329859851446    0.3398384465421488     N1
    0.3333329854322145    0.6666669831836742    0.6230238192064922     O1
    0.6666669847440474    0.3333329859851446    0.4351074995193548     O2
    0.3333329854322145    0.6666669831836742    0.4820665815722375    Sc1
    0.6666669847440474    0.3333329859851446    0.5770327824218772    Sc2
