Zr-Zr-C-NCS-F
   1.000
    3.4021318659640523    0.0000000000000000    0.0000000000000000
   -1.7010659329820261    2.9463326229324287    0.0000000000000000
    0.0000000000000000    0.0000000000000000   25.9593942774707074
   C    F    N    S    Zr
    2    1    1    1    2
Direct
    0.0000000000000000    0.0000000000000000    0.4428952537753875     C1
    0.3333329854322145    0.6666669831836742    0.5934455913730017     C2
    0.6666669847440473    0.3333329859851446    0.3466953005067148     F1
    0.3333329854322145    0.6666669831836742    0.5451948826413177     N1
    0.3333329854322145    0.6666669831836742    0.6533046994932852     S1
    0.3333329854322145    0.6666669831836742    0.3971261901683249    Zr1
    0.6666669847440473    0.3333329859851446    0.4916224134363247    Zr2
