Zr-Zr-N-OCl-OCN
   1.000
    3.2766380488404909    0.0000000000000000    0.0000000000000000
   -1.6383190244202455    2.8376517893055837    0.0000000000000000
    0.0000000000000000    0.0000000000000000   29.0524591766835663
   C    Cl   N    O    Zr
    1    1    2    2    2
Direct
    0.6666669847440474    0.3333329859851446    0.3506678658762080     C1
    0.3333329854322145    0.6666669831836742    0.6902155530013422    Cl1
    0.0000000000000000    0.0000000000000000    0.4906746728683929     N1
    0.6666669847440474    0.3333329859851446    0.3097844469986578     N2
    0.3333329854322145    0.6666669831836742    0.5689369267159045     O1
    0.6666669847440474    0.3333329859851446    0.3967128123372841     O2
    0.3333329854322145    0.6666669831836742    0.4456194367293640    Zr1
    0.6666669847440474    0.3333329859851446    0.5365752876245994    Zr2
