Ti-Ti-N-NCS-PO
   1.000
    3.1717342158714854    0.0000000000000000    0.0000000000000000
   -1.5858671079357427    2.7468024049957056    0.0000000000000000
    0.0000000000000000    0.0000000000000000   27.5870592763031155
   C    N    O    P    S    Ti
    1    2    1    1    1    2
Direct
    0.3333329854322145    0.6666669831836742    0.6176420520566133     C1
    0.0000000000000000    0.0000000000000000    0.4862389593805692     N1
    0.3333329854322145    0.6666669831836742    0.5720577535775475     N2
    0.6666669847440474    0.3333329859851446    0.3262399195890687     O1
    0.6666669847440474    0.3333329859851446    0.3803324889482462     P1
    0.3333329854322145    0.6666669831836742    0.6737600804109313     S1
    0.3333329854322145    0.6666669831836742    0.4470255805352739    Ti1
    0.6666669847440474    0.3333329859851446    0.5261820539001277    Ti2
