Ti-Ti-N-PO-PO
   1.000
    3.0831609362192696    0.0000000000000000    0.0000000000000000
   -1.5415804681096348    2.6700956947271464    0.0000000000000000
    0.0000000000000000    0.0000000000000000   26.9974496068489316
   N    O    P    Ti
    1    2    2    2
Direct
    0.0000000000000000    0.0000000000000000    0.5000000364005770     N1
    0.3333329854322146    0.6666669831836743    0.6666351773570194     O1
    0.6666669847440474    0.3333329859851446    0.3333648226429806     O2
    0.3333329854322146    0.6666669831836743    0.6114425015208301     P1
    0.6666669847440474    0.3333329859851446    0.3885574984791694     P2
    0.3333329854322146    0.6666669831836743    0.4568133694405173    Ti1
    0.6666669847440474    0.3333329859851446    0.5431866300161805    Ti2
