Hf-Hf-C-NCS-OCN
   1.000
    3.3573996304234064    0.0000000000000000    0.0000000000000000
   -1.6786998152117032    2.9075933705932773    0.0000000000000000
    0.0000000000000000    0.0000000000000000   28.4543558584076877
   C    Hf   N    O    S 
    3    2    2    1    1
Direct
    0.0000000000000000    0.0000000000000000    0.4939608240086690     C1
    0.3333329854322145    0.6666669831836742    0.6292097101576257     C2
    0.6666669847440474    0.3333329859851447    0.3580311714708209     C3
    0.3333329854322145    0.6666669831836742    0.4533761090122503    Hf1
    0.6666669847440474    0.3333329859851447    0.5373413697149735    Hf2
    0.3333329854322145    0.6666669831836742    0.5849254121612720     N1
    0.6666669847440474    0.3333329859851447    0.3162960372318772     N2
    0.6666669847440474    0.3333329859851447    0.4050641333172318     O1
    0.3333329854322145    0.6666669831836742    0.6837039627681230     S1
