Sc-Sc-C-SCN-PO
   1.000
    3.4730060681328609    0.0000000000000000    0.0000000000000000
   -1.7365030340664305    3.0077114824909557    0.0000000000000000
    0.0000000000000000    0.0000000000000000   28.4061984887368766
   C    N    O    P    S    Sc
    2    1    1    1    1    2
Direct
    0.0000000000000000    0.0000000000000000    0.4813607779396787     C1
    0.3333329854322145    0.6666669831836742    0.6412527631482485     C2
    0.3333329854322145    0.6666669831836742    0.6831677422951008     N1
    0.6666669847440474    0.3333329859851446    0.3168322577048992     O1
    0.6666669847440474    0.3333329859851446    0.3694609758357889     P1
    0.3333329854322145    0.6666669831836742    0.5823743642284125     S1
    0.3333329854322145    0.6666669831836742    0.4401071988345224    Sc1
    0.6666669847440474    0.3333329859851446    0.5247954631835898    Sc2
