Y-Y-C-NO-F
   1.000
    3.6327766600737137    0.0000000000000000    0.0000000000000000
   -1.8163883300368568    3.1460768739095295    0.0000000000000000
    0.0000000000000000    0.0000000000000000   24.5062848067000516
   C    F    N    O    Y 
    1    1    1    1    2
Direct
    0.0000000000000000    0.0000000000000000    0.4697984437423625     C1
    0.6666669847440474    0.3333329859851447    0.3672527301053560     F1
    0.3333329854322145    0.6666669831836742    0.5799684225891424     N1
    0.3333329854322145    0.6666669831836742    0.6327472698946440     O1
    0.3333329854322145    0.6666669831836742    0.4141960760747775     Y1
    0.6666669847440474    0.3333329859851447    0.5266954542965615     Y2
