Ti-Ti-N-OCl-NCO
   1.000
    3.0851963149648651    0.0000000000000000    0.0000000000000000
   -1.5425981574824326    2.6718583844217108    0.0000000000000000
    0.0000000000000000    0.0000000000000000   30.1358241298491834
   C    Cl   N    O    Ti
    1    1    2    2    2
Direct
    0.6666669847440474    0.3333329859851446    0.3385735055069750     C1
    0.3333329854322146    0.6666669831836742    0.7013521196161480    Cl1
    0.0000000000000000    0.0000000000000000    0.4620485188746370     N1
    0.6666669847440474    0.3333329859851446    0.3799903958696508     N2
    0.3333329854322146    0.6666669831836742    0.5337508896506525     O1
    0.6666669847440474    0.3333329859851446    0.2986478803838520     O2
    0.3333329854322146    0.6666669831836742    0.4244672882504931    Ti1
    0.6666669847440474    0.3333329859851446    0.5039069207944419    Ti2
