Ti-Ti-N-PO-H
   1.000
    3.0532142364949100    0.0000000000000000    0.0000000000000000
   -1.5266071182474550    2.6441610919989826    0.0000000000000000
    0.0000000000000000    0.0000000000000000   24.6171376220030815
   H    N    O    P    Ti
    1    1    1    1    2
Direct
    0.6666669847440474    0.3333329859851446    0.3655989635430115     H1
    0.0000000000000000    0.0000000000000000    0.4513960624158789     N1
    0.3333329854322145    0.6666669831836742    0.6344010364569885     O1
    0.3333329854322145    0.6666669831836742    0.5738483535945902     P1
    0.3333329854322145    0.6666669831836742    0.4041154059355396    Ti1
    0.6666669847440474    0.3333329859851446    0.4986849140694437    Ti2
