Hf-Hf-N-OCl-O
   1.000
    3.2255618828488375    0.0000000000000000    0.0000000000000000
   -1.6127809414244190    2.7934185320347846    0.0000000000000000
    0.0000000000000000    0.0000000000000000   25.9203200839692727
   Cl   Hf   N    O 
    1    2    1    2
Direct
    0.3333329854322145    0.6666669831836742    0.6527820655437757    Cl1
    0.3333329854322145    0.6666669831836742    0.3846406794976060    Hf1
    0.6666669847440473    0.3333329859851446    0.4885272929308000    Hf2
    0.0000000000000000    0.0000000000000000    0.4362286372130632     N1
    0.3333329854322145    0.6666669831836742    0.5236720004157622     O1
    0.6666669847440473    0.3333329859851446    0.3472179344562244     O2
