Hf-Hf-C-F-OCN
   1.000
    3.3523111644372641    0.0000000000000000    0.0000000000000000
   -1.6761555822186320    2.9031866297893538    0.0000000000000000
    0.0000000000000000    0.0000000000000000   25.5746086806468504
   C    F    Hf   N    O 
    2    1    2    1    1
Direct
    0.0000000000000000    0.0000000000000000    0.5511596653275550     C1
    0.6666669847440474    0.3333329859851447    0.3983493299570314     C2
    0.3333329854322145    0.6666669831836743    0.6480884570949235     F1
    0.3333329854322145    0.6666669831836743    0.5047080966370877    Hf1
    0.6666669847440474    0.3333329859851447    0.5966849501379778    Hf2
    0.6666669847440474    0.3333329859851447    0.3519115429050766     N1
    0.6666669847440474    0.3333329859851447    0.4507335099802986     O1
