Zr-Zr-C-CN-PO
   1.000
    3.3632387209384196    0.0000000000000000    0.0000000000000000
   -1.6816193604692098    2.9126501713152737    0.0000000000000000
    0.0000000000000000    0.0000000000000000   26.7129652858998234
   C    N    O    P    Zr
    2    1    1    1    2
Direct
    0.0000000000000000    0.0000000000000000    0.5149406903375240     C1
    0.3333329854322145    0.6666669831836742    0.6179533845099869     C2
    0.3333329854322145    0.6666669831836742    0.6630849513082488     N1
    0.6666669847440474    0.3333329859851446    0.3369150486917512     O1
    0.6666669847440474    0.3333329859851446    0.3928092176032229     P1
    0.3333329854322145    0.6666669831836742    0.4672998551933683    Zr1
    0.6666669847440474    0.3333329859851446    0.5625472056133429    Zr2
