Zr-Zr-C-NCO-F
   1.000
    3.3808689055914098    0.0000000000000000    0.0000000000000000
   -1.6904344527957049    2.9279183591033990    0.0000000000000000
    0.0000000000000000    0.0000000000000000   25.6530045946548171
   C    F    N    O    Zr
    2    1    1    1    2
Direct
    0.0000000000000000    0.0000000000000000    0.4485190659826788     C1
    0.3333329854322145    0.6666669831836742    0.6021871142716835     C2
    0.6666669847440474    0.3333329859851446    0.3508360966759926     F1
    0.3333329854322145    0.6666669831836742    0.5535878343097066     N1
    0.3333329854322145    0.6666669831836742    0.6491639033240074     O1
    0.3333329854322145    0.6666669831836742    0.4018048352218128    Zr1
    0.6666669847440474    0.3333329859851446    0.4971338558156853    Zr2
