Y-Y-N-F-OH
   1.000
    3.5062001699621552    0.0000000000000000    0.0000000000000000
   -1.7531000849810776    3.0364584179403207    0.0000000000000000
    0.0000000000000000    0.0000000000000000   24.2035862334995358
   F    H    N    O    Y 
    1    1    1    1    2
Direct
    0.3333329854322145    0.6666669831836742    0.6281542779167435     F1
    0.6666669847440475    0.3333329859851446    0.3718457220832564     H1
    0.0000000000000000    0.0000000000000000    0.5227204857676659     N1
    0.6666669847440475    0.3333329859851446    0.4126855428789957     O1
    0.3333329854322145    0.6666669831836742    0.4661158127629375     Y1
    0.6666669847440475    0.3333329859851446    0.5766498850430966     Y2
