Sc-Sc-N-OCl-NCO
   1.000
    3.2768270315563752    0.0000000000000000    0.0000000000000000
   -1.6384135157781876    2.8378154531345725    0.0000000000000000
    0.0000000000000000    0.0000000000000000   29.5089438904366048
   C    Cl   N    O    Sc
    1    1    2    2    2
Direct
    0.6666669847440474    0.3333329859851446    0.3457878577895935     C1
    0.3333329854322146    0.6666669831836742    0.6950077226275536    Cl1
    0.0000000000000000    0.0000000000000000    0.4697726891826778     N1
    0.6666669847440474    0.3333329859851446    0.3879348508951611     N2
    0.3333329854322146    0.6666669831836742    0.5478567627115790     O1
    0.6666669847440474    0.3333329859851446    0.3049922773724464     O2
    0.3333329854322146    0.6666669831836742    0.4351331730669218    Sc1
    0.6666669847440474    0.3333329859851446    0.5243255874321597    Sc2
