Hf-Hf-N-CN-PO
   1.000
    3.2465796091586507    0.0000000000000000    0.0000000000000000
   -1.6232898045793254    2.8116204169360492    0.0000000000000000
    0.0000000000000000    0.0000000000000000   26.6193797768164480
   C    Hf   N    O    P 
    1    2    2    1    1
Direct
    0.3333329854322146    0.6666669831836742    0.6163770656538425     C1
    0.3333329854322146    0.6666669831836742    0.4665088695056390    Hf1
    0.6666669847440474    0.3333329859851446    0.5612978628304939    Hf2
    0.0000000000000000    0.0000000000000000    0.5146457220924995     N1
    0.3333329854322146    0.6666669831836742    0.6619004621648492     N2
    0.6666669847440474    0.3333329859851446    0.3380995378351508     O1
    0.6666669847440474    0.3333329859851446    0.3942137505598290     P1
