Sc-Sc-N-NO-O
   1.000
    3.2909170612766747    0.0000000000000000    0.0000000000000000
   -1.6454585306383374    2.8500177768248047    0.0000000000000000
    0.0000000000000000    0.0000000000000000   23.9795554411516463
   N    O    Sc
    2    2    2
Direct
    0.0000000000000000    0.0000000000000000    0.4710526524337229     N1
    0.3333329854322145    0.6666669831836742    0.5712591891245082     N2
    0.3333329854322145    0.6666669831836742    0.6246802814136005     O1
    0.6666669847440474    0.3333329859851446    0.3753197185863995     O2
    0.3333329854322145    0.6666669831836742    0.4045501071003407    Sc1
    0.6666669847440474    0.3333329859851446    0.5139037586978031    Sc2
