 La-La-C-H-H                            
   1.0000000000000000     
     3.8952483732236045    0.0000000000000007    0.0000000000000003
    -1.9476241866118011    3.3733840452656745    0.0000000000000003
     0.0000000000000031    0.0000000000000066   22.9730320584262415
   C    H    La
     1     2     2
Direct
 -0.0000000000000000  0.0000000000000000  0.5000000267999951
  0.3333329854322145  0.6666669831836742  0.6101760193771838
  0.6666669847440474  0.3333329859851446  0.3898239806228162
  0.3333329854322145  0.6666669831836742  0.4351074189083530
  0.6666669847440474  0.3333329859851446  0.5648925806916398

  0.00000000E+00  0.00000000E+00  0.00000000E+00
  0.00000000E+00  0.00000000E+00  0.00000000E+00
  0.00000000E+00  0.00000000E+00  0.00000000E+00
  0.00000000E+00  0.00000000E+00  0.00000000E+00
  0.00000000E+00  0.00000000E+00  0.00000000E+00
