Y-Y-N-PO-PO
   1.000
    3.4987999865527888    0.0000000000000000    0.0000000000000000
   -1.7493999932763944    3.0300496710702882    0.0000000000000000
    0.0000000000000000    0.0000000000000000   27.8537085022327275
   N    O    P    Y 
    1    2    2    2
Direct
    0.0000000000000000    0.0000000000000000    0.5000000273969452     N1
    0.3333329854322145    0.6666669831836741    0.6768832416236937     O1
    0.6666669847440473    0.3333329859851445    0.3231167583763063     O2
    0.3333329854322145    0.6666669831836741    0.6231866891115614     P1
    0.6666669847440473    0.3333329859851445    0.3768133108884384     P2
    0.3333329854322145    0.6666669831836741    0.4526014139620805     Y1
    0.6666669847440473    0.3333329859851445    0.5473985856290025     Y2
