Hf-Hf-N-CN-Br
   1.000
    3.3956901256268597    0.0000000000000000    0.0000000000000000
   -1.6978450628134298    2.9407539121720276    0.0000000000000000
    0.0000000000000000    0.0000000000000000   24.8496632144211276
   Br   C    Hf   N 
    1    1    2    2
Direct
    0.6666669847440475    0.3333329859851446    0.3621779467327745    Br1
    0.3333329854322145    0.6666669831836742    0.5891873841180540     C1
    0.3333329854322145    0.6666669831836742    0.4408436017234825    Hf1
    0.6666669847440475    0.3333329859851446    0.5313181263381109    Hf2
    0.0000000000000000    0.0000000000000000    0.4855889558103918     N1
    0.3333329854322145    0.6666669831836742    0.6378220532672256     N2
