Hf-Hf-N-F-OH
   1.000
    3.3189058429180851    0.0000000000000000    0.0000000000000000
   -1.6594529214590426    2.8742567727338297    0.0000000000000000
    0.0000000000000000    0.0000000000000000   23.8346020696712273
   F    H    Hf   N    O 
    1    1    2    1    1
Direct
    0.3333329854322145    0.6666669831836742    0.6223977235410942     F1
    0.6666669847440475    0.3333329859851446    0.3776022764589057     H1
    0.3333329854322145    0.6666669831836742    0.4727775582031343    Hf1
    0.6666669847440475    0.3333329859851446    0.5679014545982606    Hf2
    0.0000000000000000    0.0000000000000000    0.5217963865760050     N1
    0.6666669847440475    0.3333329859851446    0.4193248902913478     O1
