Zr-Zr-N-NO-O
   1.000
    3.3529026458983346    0.0000000000000000    0.0000000000000000
   -1.6764513229491673    2.9036988677604496    0.0000000000000000
    0.0000000000000000    0.0000000000000000   23.9704195148556600
   N    O    Zr
    2    2    2
Direct
    0.0000000000000000    0.0000000000000000    0.4666316902181292     N1
    0.3333329854322144    0.6666669831836742    0.5685605960394179     N2
    0.3333329854322144    0.6666669831836742    0.6245372345518504     O1
    0.6666669847440473    0.3333329859851446    0.3754627654481496     O2
    0.3333329854322144    0.6666669831836742    0.4140705676390581    Zr1
    0.6666669847440473    0.3333329859851446    0.5293116089472258    Zr2
