 Sc-Sc-C-Br-H                           
   1.0000000000000000     
     3.3978294722575870   -0.0000000000000001   -0.0000000000000000
    -1.6989147361287928    2.9426066406983291   -0.0000000000000000
     0.0000000000000017    0.0000000000000033   30.1915542073562690
   C    Br   H    Sc
     1     1     1     2
Direct
 -0.0000000000000000 -0.0000000000000000  0.4840740649042832
  0.0000000000000000  0.0000000000000000  0.5900523955219475
  0.6666669847440474  0.3333329859851446  0.4110901073607929
  0.3333329854322145  0.6666669831836742  0.4436035980732950
  0.6666669847440474  0.3333329859851446  0.5260181433716836

  0.00000000E+00  0.00000000E+00  0.00000000E+00
  0.00000000E+00  0.00000000E+00  0.00000000E+00
  0.00000000E+00  0.00000000E+00  0.00000000E+00
  0.00000000E+00  0.00000000E+00  0.00000000E+00
  0.00000000E+00  0.00000000E+00  0.00000000E+00
