Ti-Ti-N-F-F
   1.000
    3.2519425341747095    0.0000000000000000    0.0000000000000000
   -1.6259712670873547    2.8162648462443727    0.0000000000000000
    0.0000000000000000    0.0000000000000000   22.3911927583435819
   F    N    Ti
    2    1    2
Direct
    0.3333329854322145    0.6666669831836742    0.5980562492971104     F1
    0.6666669847440474    0.3333329859851445    0.4019437507028897     F2
    0.0000000000000000    0.0000000000000000    0.5000000394512208     N1
    0.3333329854322145    0.6666669831836742    0.4545970697689988    Ti1
    0.6666669847440474    0.3333329859851445    0.5454029296421665    Ti2
