Ti-Ti-N-Br-OH
   1.000
    3.2250155656134236    0.0000000000000000    0.0000000000000000
   -1.6125077828067118    2.7929454074243272    0.0000000000000000
    0.0000000000000000    0.0000000000000000   24.1259404290636930
   Br   H    N    O    Ti
    1    1    1    1    2
Direct
    0.3333329854322145    0.6666669831836742    0.6269575469415480    Br1
    0.6666669847440474    0.3333329859851446    0.3730424530584520     H1
    0.0000000000000000    0.0000000000000000    0.5070842047737636     N1
    0.6666669847440474    0.3333329859851446    0.4139207175555621     O1
    0.3333329854322145    0.6666669831836742    0.4643457728275155    Ti1
    0.6666669847440474    0.3333329859851446    0.5497001534230417    Ti2
