Ti-Ti-N-NO-F
   1.000
    3.1921070894454981    0.0000000000000000    0.0000000000000000
   -1.5960535447227491    2.7644458310590507    0.0000000000000000
    0.0000000000000000    0.0000000000000000   23.8628428762536657
   F    N    O    Ti
    1    2    1    2
Direct
    0.6666669847440474    0.3333329859851446    0.3771553978992193     F1
    0.0000000000000000    0.0000000000000000    0.4700394880157878     N1
    0.3333329854322145    0.6666669831836742    0.5684753822973961     N2
    0.3333329854322145    0.6666669831836742    0.6228446021007807     O1
    0.3333329854322145    0.6666669831836742    0.4281520715794383    Ti1
    0.6666669847440474    0.3333329859851446    0.5184748239870829    Ti2
