Zr-Zr-N-OCl-PO
   1.000
    3.2648239730055852    0.0000000000000000    0.0000000000000000
   -1.6324119865027926    2.8274204995084657    0.0000000000000000
    0.0000000000000000    0.0000000000000000   28.4296925794855753
   Cl   N    O    P    Zr
    1    1    2    1    2
Direct
    0.3333329854322145    0.6666669831836742    0.6834295701637568    Cl1
    0.0000000000000000    0.0000000000000000    0.4866025303275788     N1
    0.3333329854322145    0.6666669831836742    0.5659289300053651     O1
    0.6666669847440474    0.3333329859851447    0.3165704298362432     O2
    0.6666669847440474    0.3333329859851447    0.3689719171259124     P1
    0.3333329854322145    0.6666669831836742    0.4383409158822743    Zr1
    0.6666669847440474    0.3333329859851447    0.5335028067694197    Zr2
