Zr-Zr-N-NCO-H
   1.000
    3.3390969438755054    0.0000000000000000    0.0000000000000000
   -1.6695484719377527    2.8917427790708752    0.0000000000000000
    0.0000000000000000    0.0000000000000000   25.2898177717502293
   C    H    N    O    Zr
    1    1    2    1    2
Direct
    0.3333329854322145    0.6666669831836742    0.5964692312883825     C1
    0.6666669847440474    0.3333329859851446    0.3558744503905984     H1
    0.0000000000000000    0.0000000000000000    0.4431795667903675     N1
    0.3333329854322145    0.6666669831836742    0.5471505583086647     N2
    0.3333329854322145    0.6666669831836742    0.6441255496094016     O1
    0.3333329854322145    0.6666669831836742    0.3961716044758140    Zr1
    0.6666669847440474    0.3333329859851446    0.4895124436951757    Zr2
