Hf-Hf-N-SCN-OH
   1.000
    3.3709512999384041    0.0000000000000000    0.0000000000000000
   -1.6854756499692021    2.9193294606341942    0.0000000000000000
    0.0000000000000000    0.0000000000000000   27.1337573742566960
   C    H    Hf   N    O    S 
    1    1    2    2    1    1
Direct
    0.3333329854322145    0.6666669831836742    0.6244458219001322     C1
    0.6666669847440474    0.3333329859851446    0.3316901480271509     H1
    0.3333329854322145    0.6666669831836742    0.4146911679601440    Hf1
    0.6666669847440474    0.3333329859851446    0.5018677335110592    Hf2
    0.0000000000000000    0.0000000000000000    0.4525239437702754     N1
    0.3333329854322145    0.6666669831836742    0.6683098519728491     N2
    0.6666669847440474    0.3333329859851446    0.3682850156912902     O1
    0.3333329854322145    0.6666669831836742    0.5618820116374282     S1
