Y-Y-N-CN-OH
   1.000
    3.5457981626403412    0.0000000000000000    0.0000000000000000
   -1.7728990813201706    3.0707512855381358    0.0000000000000000
    0.0000000000000000    0.0000000000000000   25.6762529879313988
   C    H    N    O    Y 
    1    1    2    1    2
Direct
    0.3333329854322145    0.6666669831836742    0.6027268665707595     C1
    0.6666669847440474    0.3333329859851446    0.3505184344549910     H1
    0.0000000000000000    0.0000000000000000    0.4898261344654146     N1
    0.3333329854322145    0.6666669831836742    0.6494815655450090     N2
    0.6666669847440474    0.3333329859851446    0.3889196928114202     O1
    0.3333329854322145    0.6666669831836742    0.4395579647323840     Y1
    0.6666669847440474    0.3333329859851446    0.5437505853433501     Y2
