Y-Y-N-F-Br
   1.000
    3.5865727042088449    0.0000000000000000    0.0000000000000000
   -1.7932863521044224    3.1060630743720918    0.0000000000000000
    0.0000000000000000    0.0000000000000000   23.8176089050725075
   Br   F    N    Y 
    1    1    1    2
Direct
    0.6666669847440474    0.3333329859851446    0.3778716845956456    Br1
    0.3333329854322145    0.6666669831836742    0.6221283154043544     F1
    0.0000000000000000    0.0000000000000000    0.5187267198367096     N1
    0.3333329854322145    0.6666669831836742    0.4610494678380596     Y1
    0.6666669847440474    0.3333329859851446    0.5714461134474881     Y2
