Y-Y-N-CN-OCl
   1.000
    3.7485916224435667    0.0000000000000000    0.0000000000000000
   -1.8742958112217833    3.2463755734576552    0.0000000000000000
    0.0000000000000000    0.0000000000000000   25.8428386461227362
   C    Cl   N    O    Y 
    1    1    2    1    2
Direct
    0.3333329854322145    0.6666669831836742    0.6053824108126654     C1
    0.6666669847440474    0.3333329859851446    0.3482589557300932    Cl1
    0.0000000000000000    0.0000000000000000    0.5188271522261261     N1
    0.3333329854322145    0.6666669831836742    0.6517410442699068     N2
    0.6666669847440474    0.3333329859851446    0.4521471939142608     O1
    0.3333329854322145    0.6666669831836742    0.4246789750815689     Y1
    0.6666669847440474    0.3333329859851446    0.5457645197381777     Y2
