Zr-Zr-C-PO-Br
   1.000
    3.4226711828053471    0.0000000000000000    0.0000000000000000
   -1.7113355914026736    2.9641201931050087    0.0000000000000000
    0.0000000000000000    0.0000000000000000   25.9234009815948632
   Br   C    O    P    Zr
    1    1    1    1    2
Direct
    0.6666669847440473    0.3333329859851445    0.3471766689251088    Br1
    0.0000000000000000    0.0000000000000000    0.4701694600886490     C1
    0.3333329854322145    0.6666669831836742    0.6528233310748912     O1
    0.3333329854322145    0.6666669831836742    0.5951846630856633     P1
    0.3333329854322145    0.6666669831836742    0.4231806155262849    Zr1
    0.6666669847440473    0.3333329859851445    0.5188547642214462    Zr2
