Hf-Hf-N-CN-OCl
   1.000
    3.2397704864941228    0.0000000000000000    0.0000000000000000
   -1.6198852432470614    2.8057235437353683    0.0000000000000000
    0.0000000000000000    0.0000000000000000   27.5722181887757891
   C    Cl   Hf   N    O 
    1    1    2    2    1
Direct
    0.3333329854322145    0.6666669831836742    0.6296125381383115     C1
    0.6666669847440473    0.3333329859851446    0.3264155222615987    Cl1
    0.3333329854322145    0.6666669831836742    0.4823470965728313    Hf1
    0.6666669847440473    0.3333329859851446    0.5774692679686364    Hf2
    0.0000000000000000    0.0000000000000000    0.5295622313500272     N1
    0.3333329854322145    0.6666669831836742    0.6735844777384012     N2
    0.6666669847440473    0.3333329859851446    0.4494590828479340     O1
