Hf-Hf-C-PO-Br
   1.000
    3.3958414566619513    0.0000000000000000    0.0000000000000000
   -1.6979207283309756    2.9408849686871812    0.0000000000000000
    0.0000000000000000    0.0000000000000000   25.7789035486739380
   Br   C    Hf   O    P 
    1    1    2    1    1
Direct
    0.6666669847440475    0.3333329859851446    0.3491226840973600    Br1
    0.0000000000000000    0.0000000000000000    0.4699256075629853     C1
    0.3333329854322145    0.6666669831836742    0.4251305923940420    Hf1
    0.6666669847440475    0.3333329859851446    0.5179114973815828    Hf2
    0.3333329854322145    0.6666669831836742    0.6508773159026400     O1
    0.3333329854322145    0.6666669831836742    0.5928267598475103     P1
