Zr-Zr-N-CN-CN
   1.000
    3.3898364014089477    0.0000000000000000    0.0000000000000000
   -1.6949182007044739    2.9356844382775327    0.0000000000000000
    0.0000000000000000    0.0000000000000000   25.7405782927489568
   C    N    Zr
    2    3    2
Direct
    0.3333329854322145    0.6666669831836742    0.6035436216313939     C1
    0.6666669847440474    0.3333329859851446    0.3964563788399877     C2
    0.0000000000000000    0.0000000000000000    0.5000000318182721     N1
    0.3333329854322145    0.6666669831836742    0.6503575056611968     N2
    0.6666669847440474    0.3333329859851446    0.3496424943388032     N3
    0.3333329854322145    0.6666669831836742    0.4542518101009898    Zr1
    0.6666669847440474    0.3333329859851446    0.5457481898990015    Zr2
