Zr-Zr-C-NO-F
   1.000
    3.4218063869923605    0.0000000000000000    0.0000000000000000
   -1.7109031934961803    2.9633712579606146    0.0000000000000000
    0.0000000000000000    0.0000000000000000   24.1931240311840554
   C    F    N    O    Zr
    1    1    1    1    2
Direct
    0.0000000000000000    0.0000000000000000    0.4718205619206211     C1
    0.6666669847440474    0.3333329859851446    0.3720065250109629     F1
    0.3333329854322145    0.6666669831836741    0.5729677843625240     N1
    0.3333329854322145    0.6666669831836741    0.6279934749890370     O1
    0.3333329854322145    0.6666669831836741    0.4255302471984467    Zr1
    0.6666669847440474    0.3333329859851446    0.5331001808892974    Zr2
