Hf-Hf-N-NCS-Br
   1.000
    3.4062258366439329    0.0000000000000000    0.0000000000000000
   -1.7031129183219664    2.9498781055491716    0.0000000000000000
    0.0000000000000000    0.0000000000000000   26.3287676352403253
   Br   C    Hf   N    S 
    1    1    2    2    1
Direct
    0.6666669847440474    0.3333329859851446    0.3418314189515558    Br1
    0.3333329854322146    0.6666669831836742    0.5992403427970188     C1
    0.3333329854322146    0.6666669831836742    0.4159515897014573    Hf1
    0.6666669847440474    0.3333329859851446    0.5010452320988537    Hf2
    0.0000000000000000    0.0000000000000000    0.4583879323196188     N1
    0.3333329854322146    0.6666669831836742    0.5512408982824160     N2
    0.3333329854322146    0.6666669831836742    0.6581685810484441     S1
