Sc-Sc-C-CN-F
   1.000
    3.3855861301419163    0.0000000000000000    0.0000000000000000
   -1.6927930650709582    2.9320035953984611    0.0000000000000000
    0.0000000000000000    0.0000000000000000   24.2218220444830408
   C    F    N    Sc
    2    1    1    2
Direct
    0.0000000000000000    0.0000000000000000    0.4687019668569995     C1
    0.3333329854322145    0.6666669831836742    0.5789635662240200     C2
    0.6666669847440474    0.3333329859851446    0.3715657717025427     F1
    0.3333329854322145    0.6666669831836742    0.6284342282974573     N1
    0.3333329854322145    0.6666669831836742    0.4166752775305934    Sc1
    0.6666669847440474    0.3333329859851446    0.5197296957764748    Sc2
