Sc-Sc-C-Br-OCN
   1.000
    3.4499663655001025    0.0000000000000000    0.0000000000000000
   -1.7249831827500512    2.9877585147240859    0.0000000000000000
    0.0000000000000000    0.0000000000000000   26.0519745643231495
   Br   C    N    O    Sc
    1    2    1    1    2
Direct
    0.3333329854322145    0.6666669831836742    0.6545367423962927    Br1
    0.0000000000000000    0.0000000000000000    0.5360057310325421     C1
    0.6666669847440474    0.3333329859851446    0.3910950183559040     C2
    0.6666669847440474    0.3333329859851446    0.3454632576037073     N1
    0.6666669847440474    0.3333329859851446    0.4423856899606273     O1
    0.3333329854322145    0.6666669831836742    0.4884038757075748    Sc1
    0.6666669847440474    0.3333329859851446    0.5830712712185813    Sc2
