Ti-Ti-N-NO-NCS
   1.000
    3.1546380526978246    0.0000000000000000    0.0000000000000000
   -1.5773190263489123    2.7319966933784792    0.0000000000000000
    0.0000000000000000    0.0000000000000000   27.6656452599815736
   C    N    O    S    Ti
    1    3    1    1    2
Direct
    0.6666669847440474    0.3333329859851446    0.3813587263826507     C1
    0.0000000000000000    0.0000000000000000    0.5012536771335875     N1
    0.3333329854322145    0.6666669831836742    0.6016439171480578     N2
    0.6666669847440474    0.3333329859851446    0.4262746251112552     N3
    0.3333329854322145    0.6666669831836742    0.6746867851653356     O1
    0.6666669847440474    0.3333329859851446    0.3253132148346644     S1
    0.3333329854322145    0.6666669831836742    0.4777526499970318    Ti1
    0.6666669847440474    0.3333329859851446    0.6343847711743561    Ti2
