Sc-Sc-C-SCN-OCN
   1.000
    3.4737010548221963    0.0000000000000000    0.0000000000000000
   -1.7368505274110981    3.0083133586299198    0.0000000000000000
    0.0000000000000000    0.0000000000000000   28.6664132625062287
   C    N    O    S    Sc
    3    2    1    1    2
Direct
    0.0000000000000000    0.0000000000000000    0.4864259644405440     C1
    0.3333329854322145    0.6666669831836742    0.6445083845622840     C2
    0.6666669847440474    0.3333329859851446    0.3554379475043357     C3
    0.3333329854322145    0.6666669831836742    0.6860437363549975     N1
    0.6666669847440474    0.3333329859851446    0.3139562636450025     N2
    0.6666669847440474    0.3333329859851446    0.4020951601238297     O1
    0.3333329854322145    0.6666669831836742    0.5861964344697026     S1
    0.3333329854322145    0.6666669831836742    0.4433194987256578    Sc1
    0.6666669847440474    0.3333329859851446    0.5288959443460952    Sc2
