Hf-Hf-C-PO-PO
   1.000
    3.2631809463894954    0.0000000000000000    0.0000000000000000
   -1.6315904731947477    2.8259975967126172    0.0000000000000000
    0.0000000000000000    0.0000000000000000   27.4933420762299292
   C    Hf   O    P 
    1    2    2    2
Direct
    0.0000000000000000    0.0000000000000000    0.5000000319090262     C1
    0.3333329854322145    0.6666669831836742    0.4533578921317388    Hf1
    0.6666669847440474    0.3333329859851447    0.5466421073919983    Hf2
    0.3333329854322145    0.6666669831836742    0.6726480187441024     O1
    0.6666669847440474    0.3333329859851447    0.3273519812558975     O2
    0.3333329854322145    0.6666669831836742    0.6183410944044470     P1
    0.6666669847440474    0.3333329859851447    0.3816589055955531     P2
