Y-Y-C-F-Cl
   1.000
    3.6551879390229094    0.0000000000000000    0.0000000000000000
   -1.8275939695114547    3.1654856108184970    0.0000000000000000
    0.0000000000000000    0.0000000000000000   23.6479502840040965
   C    Cl   F    Y 
    1    1    1    2
Direct
    0.0000000000000000    0.0000000000000000    0.5132273595486075     C1
    0.6666669847440475    0.3333329859851446    0.3805826675002680    Cl1
    0.3333329854322145    0.6666669831836742    0.6194173324997320     F1
    0.3333329854322145    0.6666669831836742    0.4560208291089324     Y1
    0.6666669847440475    0.3333329859851446    0.5711864769607531     Y2
