Y-Y-N-SCN-O
   1.000
    3.6533745089195713    0.0000000000000000    0.0000000000000000
   -1.8266872544597856    3.1639151342714307    0.0000000000000000
    0.0000000000000000    0.0000000000000000   26.0980636270462369
   C    N    O    S    Y 
    1    2    1    1    2
Direct
    0.3333329854322145    0.6666669831836741    0.6095507868574008     C1
    0.0000000000000000    0.0000000000000000    0.4356489862609649     N1
    0.3333329854322145    0.6666669831836741    0.6551468289519757     N2
    0.6666669847440473    0.3333329859851445    0.3448531710480244     O1
    0.3333329854322145    0.6666669831836741    0.5455451474807596     S1
    0.3333329854322145    0.6666669831836741    0.3691424673364794     Y1
    0.6666669847440473    0.3333329859851445    0.4760122656802145     Y2
