Zr-Zr-C-NCS-NCS
   1.000
    3.4259834481566802    0.0000000000000000    0.0000000000000000
   -1.7129917240783401    2.9669886990371643    0.0000000000000000
    0.0000000000000000    0.0000000000000000   28.8546468748560763
   C    N    S    Zr
    3    2    2    2
Direct
    0.0000000000000000    0.0000000000000000    0.5000000277885630     C1
    0.3333329854322145    0.6666669831836743    0.6342060708544697     C2
    0.6666669847440473    0.3333329859851447    0.3657939291455305     C3
    0.3333329854322145    0.6666669831836743    0.5908223546228966     N1
    0.6666669847440473    0.3333329859851447    0.4091776457887862     N2
    0.3333329854322145    0.6666669831836743    0.6880918335603476     S1
    0.6666669847440473    0.3333329859851447    0.3119081664396524     S2
    0.3333329854322145    0.6666669831836743    0.4573515340399280    Zr1
    0.6666669847440473    0.3333329859851447    0.5426484659600650    Zr2
