Zr-Zr-N-NO-OCN
   1.000
    3.3604465381167263    0.0000000000000000    0.0000000000000000
   -1.6802232690583632    2.9102320700678002    0.0000000000000000
    0.0000000000000000    0.0000000000000000   26.8643518522322111
   C    N    O    Zr
    1    3    2    2
Direct
    0.6666669847440473    0.3333329859851446    0.3792373860573862     C1
    0.0000000000000000    0.0000000000000000    0.5229319104388569     N1
    0.3333329854322146    0.6666669831836742    0.6160164669714246     N2
    0.6666669847440473    0.3333329859851446    0.3350164578510824     N3
    0.3333329854322146    0.6666669831836742    0.6649835421489176     O1
    0.6666669847440473    0.3333329859851446    0.4290350892255179     O2
    0.3333329854322146    0.6666669831836742    0.4814273019537241    Zr1
    0.6666669847440473    0.3333329859851446    0.5733340424316684    Zr2
