Sc-Sc-N-SCN-OCN
   1.000
    3.4001993020934371    0.0000000000000000    0.0000000000000000
   -1.7000996510467186    2.9446589735228468    0.0000000000000000
    0.0000000000000000    0.0000000000000000   28.6095963113993612
   C    N    O    S    Sc
    2    3    1    1    2
Direct
    0.3333329854322146    0.6666669831836742    0.6438082975340075     C1
    0.6666669847440474    0.3333329859851446    0.3561206401303409     C2
    0.0000000000000000    0.0000000000000000    0.4853390098524997     N1
    0.3333329854322146    0.6666669831836742    0.6854202379495306     N2
    0.6666669847440474    0.3333329859851446    0.3145797620504694     N3
    0.6666669847440474    0.3333329859851446    0.4028798961677654     O1
    0.3333329854322146    0.6666669831836742    0.5852541516314796     S1
    0.3333329854322146    0.6666669831836742    0.4455037128317582    Sc1
    0.6666669847440474    0.3333329859851446    0.5284825468223923    Sc2
