Hf-Hf-N-NO-H
   1.000
    3.2324942576858255    0.0000000000000000    0.0000000000000000
   -1.6162471288429128    2.7994221447454062    0.0000000000000000
    0.0000000000000000    0.0000000000000000   24.0084848053658071
   H    Hf   N    O 
    1    2    2    1
Direct
    0.6666669847440473    0.3333329859851446    0.3748674717693360     H1
    0.3333329854322145    0.6666669831836742    0.4146594242966403    Hf1
    0.6666669847440473    0.3333329859851446    0.5201991674879093    Hf2
    0.0000000000000000    0.0000000000000000    0.4668439045917653     N1
    0.3333329854322145    0.6666669831836742    0.5695846133378986     N2
    0.3333329854322145    0.6666669831836742    0.6251325282306639     O1
