Zr-Zr-N-Br-OCN
   1.000
    3.4583475155254764    0.0000000000000000    0.0000000000000000
   -1.7291737577627382    2.9950168035546554    0.0000000000000000
    0.0000000000000000    0.0000000000000000   26.0879123320548452
   Br   C    N    O    Zr
    1    1    2    1    2
Direct
    0.3333329854322145    0.6666669831836742    0.6550126401282987    Br1
    0.6666669847440475    0.3333329859851446    0.3905377697195465     C1
    0.0000000000000000    0.0000000000000000    0.5354795153334695     N1
    0.6666669847440475    0.3333329859851446    0.3449873598717014     N2
    0.6666669847440475    0.3333329859851446    0.4417189301524520     O1
    0.3333329854322145    0.6666669831836742    0.4934385786218691    Zr1
    0.6666669847440475    0.3333329859851446    0.5799454802164310    Zr2
