Ti-Ti-N-F-Br
   1.000
    3.2811189634622702    0.0000000000000000    0.0000000000000000
   -1.6405594817311351    2.8415323751933435    0.0000000000000000
    0.0000000000000000    0.0000000000000000   23.0331043159603333
   Br   F    N    Ti
    1    1    1    2
Direct
    0.6666669847440474    0.3333329859851446    0.3907419458767279    Br1
    0.3333329854322145    0.6666669831836742    0.6092580541232722     F1
    0.0000000000000000    0.0000000000000000    0.5155189722479188     N1
    0.3333329854322145    0.6666669831836742    0.4707403585866251    Ti1
    0.6666669847440474    0.3333329859851446    0.5582553539388565    Ti2
