Ti-Ti-C-OCl-NCO
   1.000
    3.0998404449478776    0.0000000000000000    0.0000000000000000
   -1.5499202224739388    2.6845405730032024    0.0000000000000000
    0.0000000000000000    0.0000000000000000   30.2753392374834718
   C    Cl   N    O    Ti
    2    1    1    2    2
Direct
    0.0000000000000000    0.0000000000000000    0.4602843207553470     C1
    0.6666669847440475    0.3333329859851446    0.3370055335885346     C2
    0.3333329854322146    0.6666669831836742    0.7027283516328952    Cl1
    0.6666669847440475    0.3333329859851446    0.3781743405871191     N1
    0.3333329854322146    0.6666669831836742    0.5338512759893114     O1
    0.6666669847440475    0.3333329859851446    0.2972716483671048     O2
    0.3333329854322146    0.6666669831836742    0.4227223605964200    Ti1
    0.6666669847440475    0.3333329859851446    0.5044501762347843    Ti2
