Ti-Ti-N-NCO-NCO
   1.000
    3.1734780399298983    0.0000000000000000    0.0000000000000000
   -1.5867390199649491    2.7483126008772181    0.0000000000000000
    0.0000000000000000    0.0000000000000000   27.6641170556319373
   C    N    O    Ti
    2    3    2    2
Direct
    0.3333329854322145    0.6666669831836742    0.6311527090742908     C1
    0.6666669847440474    0.3333329859851447    0.3688472904252680     C2
    0.0000000000000000    0.0000000000000000    0.5000000335301618     N1
    0.3333329854322145    0.6666669831836742    0.5860889301238432     N2
    0.6666669847440474    0.3333329859851447    0.4139110698761654     N3
    0.3333329854322145    0.6666669831836742    0.6746688144103354     O1
    0.6666669847440474    0.3333329859851447    0.3253311855896646     O2
    0.3333329854322145    0.6666669831836742    0.4622024023002672    Ti1
    0.6666669847440474    0.3333329859851447    0.5377975971992826    Ti2
