Sc-Sc-N-SCN-F
   1.000
    3.4040918894529901    0.0000000000000000    0.0000000000000000
   -1.7020459447264951    2.9480300530605970    0.0000000000000000
    0.0000000000000000    0.0000000000000000   25.9954698696393116
   C    F    N    S    Sc
    1    1    2    1    2
Direct
    0.3333329854322145    0.6666669831836741    0.6079972820644506     C1
    0.6666669847440474    0.3333329859851445    0.3462141690507121     F1
    0.0000000000000000    0.0000000000000000    0.4331075124407257     N1
    0.3333329854322145    0.6666669831836741    0.6537858309492879     N2
    0.3333329854322145    0.6666669831836741    0.5435212562635913     S1
    0.3333329854322145    0.6666669831836741    0.3893844315265940    Sc1
    0.6666669847440474    0.3333329859851445    0.4811131166242996    Sc2
