Hf-Hf-C-Cl-OH
   1.000
    3.3452924799498329    0.0000000000000000    0.0000000000000000
   -1.6726462399749165    2.8971082707174989    0.0000000000000000
    0.0000000000000000    0.0000000000000000   24.4930183998197819
   C    Cl   H    Hf   O 
    1    1    1    2    1
Direct
    0.0000000000000000    0.0000000000000000    0.5098760179274409     C1
    0.3333329854322145    0.6666669831836742    0.6325483510000457    Cl1
    0.6666669847440473    0.3333329859851446    0.3674516489999543     H1
    0.3333329854322145    0.6666669831836742    0.4616584323684497    Hf1
    0.6666669847440473    0.3333329859851446    0.5587119492356796    Hf2
    0.6666669847440473    0.3333329859851446    0.4078883014727430     O1
