Sc-Sc-C-NCO-H
   1.000
    3.3366609290295748    0.0000000000000000    0.0000000000000000
   -1.6683304645147874    2.8896331283489292    0.0000000000000000
    0.0000000000000000    0.0000000000000000   25.3037031658254712
   C    H    N    O    Sc
    2    1    1    1    2
Direct
    0.0000000000000000    0.0000000000000000    0.4445864314440890     C1
    0.3333329854322144    0.6666669831836742    0.5967118377744487     C2
    0.6666669847440474    0.3333329859851446    0.3556791644693006     H1
    0.3333329854322144    0.6666669831836742    0.5475087635419604     N1
    0.3333329854322144    0.6666669831836742    0.6443208355306995     O1
    0.3333329854322144    0.6666669831836742    0.3952623668913742    Sc1
    0.6666669847440474    0.3333329859851446    0.4943905260478818    Sc2
