Zr-Zr-C-OCl-NCO
   1.000
    3.3243095431053322    0.0000000000000000    0.0000000000000000
   -1.6621547715526661    2.8789365143714374    0.0000000000000000
    0.0000000000000000    0.0000000000000000   28.9635353231799932
   C    Cl   N    O    Zr
    2    1    1    2    2
Direct
    0.0000000000000000    0.0000000000000000    0.4885588555971140     C1
    0.6666669847440474    0.3333329859851446    0.3523061059849721     C2
    0.3333329854322145    0.6666669831836742    0.6892644527135072    Cl1
    0.6666669847440474    0.3333329859851446    0.3954005191011889     N1
    0.3333329854322145    0.6666669831836742    0.5698341406873754     O1
    0.6666669847440474    0.3333329859851446    0.3107355472864928     O2
    0.3333329854322145    0.6666669831836742    0.4454183584725289    Zr1
    0.6666669847440474    0.3333329859851446    0.5387445955991428    Zr2
