Y-Y-C-NO-Br
   1.000
    3.7272476660634366    0.0000000000000000    0.0000000000000000
   -1.8636238330317183    3.2278911650480633    0.0000000000000000
    0.0000000000000000    0.0000000000000000   25.2025035272871278
   Br   C    N    O    Y 
    1    1    1    1    2
Direct
    0.6666669847440474    0.3333329859851446    0.3571073798384976    Br1
    0.0000000000000000    0.0000000000000000    0.4872889885287638     C1
    0.3333329854322144    0.6666669831836741    0.5914043570253189     N1
    0.3333329854322144    0.6666669831836741    0.6428926201615024     O1
    0.3333329854322144    0.6666669831836741    0.4346620909045106     Y1
    0.6666669847440474    0.3333329859851446    0.5426769301955061     Y2
