Y-Y-C-SCN-OCN
   1.000
    3.7423280646902661    0.0000000000000000    0.0000000000000000
   -1.8711640323451331    3.2409511733533609    0.0000000000000000
    0.0000000000000000    0.0000000000000000   29.0394593549929851
   C    N    O    S    Y 
    3    2    1    1    2
Direct
    0.0000000000000000    0.0000000000000000    0.4851024543766835     C1
    0.3333329854322145    0.6666669831836742    0.6490840671133489     C2
    0.6666669847440475    0.3333329859851447    0.3509060849321016     C3
    0.3333329854322145    0.6666669831836742    0.6900768747110797     N1
    0.6666669847440475    0.3333329859851447    0.3099231252889203     N2
    0.6666669847440475    0.3333329859851447    0.3968640445577082     O1
    0.3333329854322145    0.6666669831836742    0.5914311137993491     S1
    0.3333329854322145    0.6666669831836742    0.4386645940059464     Y1
    0.6666669847440475    0.3333329859851447    0.5313141624279101     Y2
