Zr-Zr-C-OCl-Cl
   1.000
    3.3518199043000587    0.0000000000000000    0.0000000000000000
   -1.6759099521500294    2.9027611860328379    0.0000000000000000
    0.0000000000000000    0.0000000000000000   26.7922780857679115
   C    Cl   O    Zr
    1    2    1    2
Direct
    0.0000000000000000    0.0000000000000000    0.4496371371779111     C1
    0.3333329854322145    0.6666669831836742    0.6640823161364240    Cl1
    0.6666669847440475    0.3333329859851446    0.3359176838635760    Cl2
    0.3333329854322145    0.6666669831836742    0.5367655888389390     O1
    0.3333329854322145    0.6666669831836742    0.4035409541285552    Zr1
    0.6666669847440475    0.3333329859851446    0.5039485640317958    Zr2
