Sc-Sc-N-O-Br
   1.000
    3.3629634930580887    0.0000000000000000    0.0000000000000000
   -1.6814817465290444    2.9124118169808706    0.0000000000000000
    0.0000000000000000    0.0000000000000000   23.1506827929288477
   Br   N    O    Sc
    1    1    1    2
Direct
    0.6666669847440474    0.3333329859851445    0.3887574323617341    Br1
    0.0000000000000000    0.0000000000000000    0.5138919925926576     N1
    0.3333329854322145    0.6666669831836741    0.6112425676382658     O1
    0.3333329854322145    0.6666669831836741    0.4714995848741584    Sc1
    0.6666669847440474    0.3333329859851445    0.5828378222022119    Sc2
