Hf-Hf-N-PO-F
   1.000
    3.3333019777461912    0.0000000000000000    0.0000000000000000
   -1.6666509888730956    2.8867241912112993    0.0000000000000000
    0.0000000000000000    0.0000000000000000   25.0444741684847472
   F    Hf   N    O    P 
    1    2    1    1    1
Direct
    0.6666669847440474    0.3333329859851446    0.3593607092507993     F1
    0.3333329854322145    0.6666669831836742    0.4114639386720159    Hf1
    0.6666669847440474    0.3333329859851446    0.5051636143140685    Hf2
    0.0000000000000000    0.0000000000000000    0.4518365880760684     N1
    0.3333329854322145    0.6666669831836742    0.6406392907492007     O1
    0.3333329854322145    0.6666669831836742    0.5808594540605645     P1
