Zr-Zr-C-CN-OCl
   1.000
    3.3310068685793444    0.0000000000000000    0.0000000000000000
   -1.6655034342896722    2.8847365683670967    0.0000000000000000
    0.0000000000000000    0.0000000000000000   27.7762233947703407
   C    Cl   N    O    Zr
    2    1    1    1    2
Direct
    0.0000000000000000    0.0000000000000000    0.5330983618858832     C1
    0.3333329854322146    0.6666669831836742    0.6325424218375169     C2
    0.6666669847440474    0.3333329859851446    0.3240181313379883    Cl1
    0.3333329854322146    0.6666669831836742    0.6759818686620116     N1
    0.6666669847440474    0.3333329859851446    0.4486389173327130     O1
    0.3333329854322146    0.6666669831836742    0.4808209515189107    Zr1
    0.6666669847440474    0.3333329859851446    0.5788456888203053    Zr2
