Hf-Hf-C-NO-O
   1.000
    3.2836847557013793    0.0000000000000000    0.0000000000000000
   -1.6418423778506896    2.8437544164564659    0.0000000000000000
    0.0000000000000000    0.0000000000000000   24.1445494386164938
   C    Hf   N    O 
    1    2    1    2
Direct
    0.0000000000000000    0.0000000000000000    0.4683916030893175     C1
    0.3333329854322145    0.6666669831836742    0.4111668985276898    Hf1
    0.6666669847440474    0.3333329859851446    0.5232143669375073    Hf2
    0.3333329854322145    0.6666669831836742    0.5725088528800392     N1
    0.3333329854322145    0.6666669831836742    0.6272450632023180     O1
    0.6666669847440474    0.3333329859851446    0.3727549367976820     O2
