Sc-Sc-N-F-OCN
   1.000
    3.3202403561728437    0.0000000000000000    0.0000000000000000
   -1.6601201780864219    2.8754124951163833    0.0000000000000000
    0.0000000000000000    0.0000000000000000   25.3404717156334058
   C    F    N    O    Sc
    1    1    2    1    2
Direct
    0.6666669847440473    0.3333329859851446    0.4020394960175019     C1
    0.3333329854322146    0.6666669831836742    0.6448369193361310     F1
    0.0000000000000000    0.0000000000000000    0.5519397375535955     N1
    0.6666669847440473    0.3333329859851446    0.3551630806638691     N2
    0.6666669847440473    0.3333329859851446    0.4548095162281838     O1
    0.3333329854322146    0.6666669831836742    0.5040869319719018    Sc1
    0.6666669847440473    0.3333329859851446    0.5992888880650395    Sc2
