Y-Y-N-NCS-O
   1.000
    3.5931565233463778    0.0000000000000000    0.0000000000000000
   -1.7965782616731889    3.1117648289839894    0.0000000000000000
    0.0000000000000000    0.0000000000000000   25.7664569419505511
   C    N    O    S    Y 
    1    2    1    1    2
Direct
    0.3333329854322145    0.6666669831836742    0.5901989228947984     C1
    0.0000000000000000    0.0000000000000000    0.4435383394073953     N1
    0.3333329854322145    0.6666669831836742    0.5418894724604317     N2
    0.6666669847440475    0.3333329859851446    0.3492913294317558     O1
    0.3333329854322145    0.6666669831836742    0.6507086705682443     S1
    0.3333329854322145    0.6666669831836742    0.3762377168033308     Y1
    0.6666669847440475    0.3333329859851446    0.4859732679195566     Y2
