Zr-Zr-C-O-O
   1.000
    3.3283171041810049    0.0000000000000000    0.0000000000000000
   -1.6641585520905025    2.8824071640392623    0.0000000000000000
    0.0000000000000000    0.0000000000000000   22.6618417178643234
   C    O    Zr
    1    2    2
Direct
    0.0000000000000000    0.0000000000000000    0.5000000372116393     C1
    0.3333329854322145    0.6666669831836743    0.6028566383946941     O1
    0.6666669847440474    0.3333329859851446    0.3971433616053059     O2
    0.3333329854322145    0.6666669831836743    0.4381188195392486    Zr1
    0.6666669847440474    0.3333329859851446    0.5618811799053436    Zr2
