Zr-Zr-N-NCO-PO
   1.000
    3.3203311141846741    0.0000000000000000    0.0000000000000000
   -1.6601655570923370    2.8754910938525211    0.0000000000000000
    0.0000000000000000    0.0000000000000000   27.8350824968475372
   C    N    O    P    Zr
    1    2    2    1    2
Direct
    0.3333329854322145    0.6666669831836742    0.6334148994684223     C1
    0.0000000000000000    0.0000000000000000    0.4935091833432514     N1
    0.3333329854322145    0.6666669831836742    0.5885639209914082     N2
    0.3333329854322145    0.6666669831836742    0.6766670261882897     O1
    0.6666669847440473    0.3333329859851446    0.3233329738117103     O2
    0.6666669847440473    0.3333329859851446    0.3770042908841922     P1
    0.3333329854322145    0.6666669831836742    0.4476884608162253    Zr1
    0.6666669847440473    0.3333329859851446    0.5361311718702805    Zr2
