Ti-Ti-N-OCl-OCl
   1.000
    3.0484777794683975    0.0000000000000000    0.0000000000000000
   -1.5242388897341987    2.6400591999104104    0.0000000000000000
    0.0000000000000000    0.0000000000000000   32.8871614179809981
   Cl   N    O    Ti
    2    1    2    2
Direct
    0.3333329854322145    0.6666669831836742    0.7263369773507037    Cl1
    0.6666669847440474    0.3333329859851446    0.2736630226492963    Cl2
    0.0000000000000000    0.0000000000000000    0.5000000305654646     N1
    0.3333329854322145    0.6666669831836742    0.5659981023047580     O1
    0.6666669847440474    0.3333329859851446    0.4340018976952502     O2
    0.3333329854322145    0.6666669831836742    0.4611840588143920    Ti1
    0.6666669847440474    0.3333329859851446    0.5388159407294072    Ti2
