 Sc-Sc-C-H-H                            
   1.0000000000000000     
     3.2937190861788896    0.0000000000000000    0.0000000000000000
    -1.6468595430894453    2.8524444015577290    0.0000000000000000
     0.0000000000000020    0.0000000000000034   32.1303543736474779
   C    H    Sc
     1     2     2
Direct
  0.0000000000000000  0.0000000000000000  0.5000000267999951
  0.3333329854322145  0.6666669831836742  0.5709718664428891
  0.6666669847440474  0.3333329859851446  0.4290281335571109
  0.3333329854322145  0.6666669831836742  0.4608176044015693
  0.6666669847440474  0.3333329859851446  0.5391823951984236

  0.00000000E+00  0.00000000E+00  0.00000000E+00
  0.00000000E+00  0.00000000E+00  0.00000000E+00
  0.00000000E+00  0.00000000E+00  0.00000000E+00
  0.00000000E+00  0.00000000E+00  0.00000000E+00
  0.00000000E+00  0.00000000E+00  0.00000000E+00
