Sc-Sc-C-F-Br
   1.000
    3.4366226870533927    0.0000000000000000    0.0000000000000000
   -1.7183113435266963    2.9762025502053833    0.0000000000000000
    0.0000000000000000    0.0000000000000000   23.4337324590810283
   Br   C    F    Sc
    1    1    1    2
Direct
    0.6666669847440474    0.3333329859851446    0.3840617373145917    Br1
    0.0000000000000000    0.0000000000000000    0.5160189414199643     C1
    0.3333329854322145    0.6666669831836743    0.6159382626854083     F1
    0.3333329854322145    0.6666669831836743    0.4639823825072028    Sc1
    0.6666669847440474    0.3333329859851446    0.5695000410134250    Sc2
