Hf-Hf-N-Cl-OCN
   1.000
    3.3664525681573649    0.0000000000000000    0.0000000000000000
   -1.6832262840786825    2.9154334446574870    0.0000000000000000
    0.0000000000000000    0.0000000000000000   25.8710312610397324
   C    Cl   Hf   N    O 
    1    1    2    2    1
Direct
    0.6666669847440473    0.3333329859851446    0.3937797891933845     C1
    0.3333329854322145    0.6666669831836743    0.6521205548712132    Cl1
    0.3333329854322145    0.6666669831836743    0.4976347568762887    Hf1
    0.6666669847440473    0.3333329859851446    0.5836816982609465    Hf2
    0.0000000000000000    0.0000000000000000    0.5393705440421949     N1
    0.6666669847440473    0.3333329859851446    0.3478794451287869     N2
    0.6666669847440473    0.3333329859851446    0.4455656062549640     O1
