Hf-Hf-N-PO-OH
   1.000
    3.2499063031469584    0.0000000000000000    0.0000000000000000
   -1.6249531515734792    2.8145014184260804    0.0000000000000000
    0.0000000000000000    0.0000000000000000   26.1899438133571891
   H    Hf   N    O    P 
    1    2    1    2    1
Direct
    0.6666669847440474    0.3333329859851447    0.3436433489181405     H1
    0.3333329854322146    0.6666669831836743    0.4318963030275114    Hf1
    0.6666669847440474    0.3333329859851447    0.5253243524821425    Hf2
    0.0000000000000000    0.0000000000000000    0.4749133725088664     N1
    0.3333329854322146    0.6666669831836743    0.6563566510818595     O1
    0.6666669847440474    0.3333329859851447    0.3816831169721460     O2
    0.3333329854322146    0.6666669831836743    0.5992855699940745     P1
