Ti-Ti-N-O-F
   1.000
    3.1602927240039884    0.0000000000000000    0.0000000000000000
   -1.5801463620019942    2.7368937823814825    0.0000000000000000
    0.0000000000000000    0.0000000000000000   22.4191721882741923
   F    N    O    Ti
    1    1    1    2
Direct
    0.6666669847440473    0.3333329859851446    0.4014421194689441     F1
    0.0000000000000000    0.0000000000000000    0.5029400973388031     N1
    0.3333329854322144    0.6666669831836742    0.5985578805310559     O1
    0.3333329854322144    0.6666669831836742    0.4552627018825776    Ti1
    0.6666669847440473    0.3333329859851446    0.5593467457729651    Ti2
