Y-Y-C-OH-OCN
   1.000
    3.6327238264025761    0.0000000000000000    0.0000000000000000
   -1.8163619132012880    3.1460311185986853    0.0000000000000000
    0.0000000000000000    0.0000000000000000   26.8131561775610834
   C    H    N    O    Y 
    2    1    1    2    2
Direct
    0.0000000000000000    0.0000000000000000    0.5283058346209650     C1
    0.6666669847440474    0.3333329859851446    0.3800061815832364     C2
    0.3333329854322146    0.6666669831836742    0.6643438787884374     H1
    0.6666669847440474    0.3333329859851446    0.3356561212115626     N1
    0.3333329854322146    0.6666669831836742    0.6275782711369789     O1
    0.6666669847440474    0.3333329859851446    0.4296653481482241     O2
    0.3333329854322146    0.6666669831836742    0.4778538922231261     Y1
    0.6666669847440474    0.3333329859851446    0.5800392621545611     Y2
