Ti-Ti-N-O-Cl
   1.000
    3.1090911729993378    0.0000000000000000    0.0000000000000000
   -1.5545455864996689    2.6925519384961620    0.0000000000000000
    0.0000000000000000    0.0000000000000000   22.9826773508189532
   Cl   N    O    Ti
    1    1    1    2
Direct
    0.6666669847440475    0.3333329859851446    0.3915992842182636    Cl1
    0.0000000000000000    0.0000000000000000    0.5145222011948341     N1
    0.3333329854322145    0.6666669831836742    0.6084007157817364     O1
    0.3333329854322145    0.6666669831836742    0.4660115135479245    Ti1
    0.6666669847440475    0.3333329859851446    0.5688991462222673    Ti2
