Hf-Hf-C-PO-OCN
   1.000
    3.2993094627543731    0.0000000000000000    0.0000000000000000
   -1.6496547313771865    2.8572858096754428    0.0000000000000000
    0.0000000000000000    0.0000000000000000   27.8414403660042069
   C    Hf   N    O    P 
    2    2    1    2    1
Direct
    0.0000000000000000    0.0000000000000000    0.5058924918676060     C1
    0.6666669847440474    0.3333329859851446    0.3659077071441723     C2
    0.3333329854322145    0.6666669831836742    0.4637610761784372    Hf1
    0.6666669847440474    0.3333329859851446    0.5524692938970133    Hf2
    0.6666669847440474    0.3333329859851446    0.3232591375189572     N1
    0.3333329854322145    0.6666669831836742    0.6767408624810428     O1
    0.6666669847440474    0.3333329859851446    0.4140838515544798     O2
    0.3333329854322145    0.6666669831836742    0.6231068183534988     P1
