Y-Y-N-NCO-PO
   1.000
    3.5283207914129253    0.0000000000000000    0.0000000000000000
   -1.7641603957064627    3.0556154380575213    0.0000000000000000
    0.0000000000000000    0.0000000000000000   28.1145978276391588
   C    N    O    P    Y 
    1    2    2    1    2
Direct
    0.3333329854322144    0.6666669831836741    0.6370398649894915     C1
    0.0000000000000000    0.0000000000000000    0.4957332404920116     N1
    0.3333329854322144    0.6666669831836741    0.5927059420287792     N2
    0.3333329854322144    0.6666669831836741    0.6798816026046015     O1
    0.6666669847440474    0.3333329859851446    0.3201183973953985     O2
    0.6666669847440474    0.3333329859851446    0.3733379533037608     P1
    0.3333329854322144    0.6666669831836741    0.4474762646230543     Y1
    0.6666669847440474    0.3333329859851446    0.5414624772509550     Y2
