Y-Y-C-NO-SCN
   1.000
    3.7561573691442272    0.0000000000000000    0.0000000000000000
   -1.8780786845721136    3.2529277023504330    0.0000000000000000
    0.0000000000000000    0.0000000000000000   27.8128628488153566
   C    N    O    S    Y 
    2    2    1    1    2
Direct
    0.0000000000000000    0.0000000000000000    0.5365490392606990     C1
    0.6666669847440475    0.3333329859851447    0.3663914471546905     C2
    0.3333329854322146    0.6666669831836743    0.6297213852171114     N1
    0.6666669847440475    0.3333329859851447    0.3235912839653378     N2
    0.3333329854322146    0.6666669831836743    0.6764087160346622     O1
    0.6666669847440475    0.3333329859851447    0.4265861471261116     S1
    0.3333329854322146    0.6666669831836743    0.4893020390486156     Y1
    0.6666669847440475    0.3333329859851447    0.5867973278648672     Y2
