Ti-Ti-C-F-Br
   1.000
    3.2855588352557810    0.0000000000000000    0.0000000000000000
   -1.6427794176278905    2.8453774169580321    0.0000000000000000
    0.0000000000000000    0.0000000000000000   23.2256166898917691
   Br   C    F    Ti
    1    1    1    2
Direct
    0.6666669847440475    0.3333329859851446    0.3875031660156939    Br1
    0.0000000000000000    0.0000000000000000    0.5136599446986034     C1
    0.3333329854322146    0.6666669831836742    0.6124968339843062     F1
    0.3333329854322146    0.6666669831836742    0.4667616830263669    Ti1
    0.6666669847440475    0.3333329859851446    0.5602870973715401    Ti2
