Sc-Sc-C-NCS-H
   1.000
    3.3775846716816558    0.0000000000000000    0.0000000000000000
   -1.6887923358408279    2.9250741290837454    0.0000000000000000
    0.0000000000000000    0.0000000000000000   25.6016364017856937
   C    H    N    S    Sc
    2    1    1    1    2
Direct
    0.0000000000000000    0.0000000000000000    0.4387854085143077     C1
    0.3333329854322145    0.6666669831836742    0.5877207940380567     C2
    0.6666669847440473    0.3333329859851446    0.3515400288776954     H1
    0.3333329854322145    0.6666669831836742    0.5390477917641001     N1
    0.3333329854322145    0.6666669831836742    0.6484599711223047     S1
    0.3333329854322145    0.6666669831836742    0.3904928248156881    Sc1
    0.6666669847440473    0.3333329859851446    0.4879099107320983    Sc2
