Ti-Ti-N-SCN-SCN
   1.000
    3.3793890504971169    0.0000000000000000    0.0000000000000000
   -1.6896945252485585    2.9266367669928255    0.0000000000000000
    0.0000000000000000    0.0000000000000000   28.8129599832426493
   C    N    S    Ti
    2    3    2    2
Direct
    0.3333329854322145    0.6666669831836742    0.6463008061428395     C1
    0.6666669847440474    0.3333329859851446    0.3536991942808862     C2
    0.0000000000000000    0.0000000000000000    0.5000000286014539     N1
    0.3333329854322145    0.6666669831836742    0.6876405615655483     N2
    0.6666669847440474    0.3333329859851446    0.3123594384344516     N3
    0.3333329854322145    0.6666669831836742    0.5880919850624100     S1
    0.6666669847440474    0.3333329859851446    0.4119080153613158     S2
    0.3333329854322145    0.6666669831836742    0.4654225196265133    Ti1
    0.6666669847440474    0.3333329859851446    0.5345774803734793    Ti2
