 La-La-C-F-H                            
   1.0000000000000000     
     3.8770008657478066    0.0000000000000011    0.0000000000000000
    -1.9385004328739022    3.3575812402340803    0.0000000000000004
     0.0000000000000022    0.0000000000000067   23.1897908853314512
   C    F    H    La
     1     1     1     2
Direct
  0.0000000000000000  0.0000000000000000  0.4967684461172859
  0.3333329854322145  0.6666669831836742  0.6104621636539016
  0.6666669847440474  0.3333329859851446  0.3864092362984659
  0.3333329854322145  0.6666669831836742  0.4320577378213136
  0.6666669847440474  0.3333329859851446  0.5610912404082442

  0.00000000E+00  0.00000000E+00  0.00000000E+00
  0.00000000E+00  0.00000000E+00  0.00000000E+00
  0.00000000E+00  0.00000000E+00  0.00000000E+00
  0.00000000E+00  0.00000000E+00  0.00000000E+00
  0.00000000E+00  0.00000000E+00  0.00000000E+00
