Ti-Ti-N-CN-H
   1.000
    3.1206768550039437    0.0000000000000000    0.0000000000000000
   -1.5603384275019718    2.7025854334376795    0.0000000000000000
    0.0000000000000000    0.0000000000000000   23.7442663644403282
   C    H    N    Ti
    1    1    2    2
Direct
    0.3333329854322145    0.6666669831836742    0.5702982669434314     C1
    0.6666669847440473    0.3333329859851446    0.3790388745587228     H1
    0.0000000000000000    0.0000000000000000    0.4646811593230998     N1
    0.3333329854322145    0.6666669831836742    0.6209611254412772     N2
    0.3333329854322145    0.6666669831836742    0.4199408769976904    Ti1
    0.6666669847440473    0.3333329859851446    0.5101829648963261    Ti2
