Ti-Ti-C-NCO-NCO
   1.000
    3.1743186071469194    0.0000000000000000    0.0000000000000000
   -1.5871593035734597    2.7490405535055928    0.0000000000000000
    0.0000000000000000    0.0000000000000000   27.8129451812633484
   C    N    O    Ti
    3    2    2    2
Direct
    0.0000000000000000    0.0000000000000000    0.5000000333330804     C1
    0.3333329854322145    0.6666669831836742    0.6331192235378297     C2
    0.6666669847440473    0.3333329859851447    0.3668807759646702     C3
    0.3333329854322145    0.6666669831836742    0.5882938954997383     N1
    0.6666669847440473    0.3333329859851447    0.4117061045002705     N2
    0.3333329854322145    0.6666669831836742    0.6764096739361857     O1
    0.6666669847440473    0.3333329859851447    0.3235903260638143     O2
    0.3333329854322145    0.6666669831836742    0.4598289934845223    Ti1
    0.6666669847440473    0.3333329859851447    0.5401710060179692    Ti2
