Hf-Hf-C-F-OH
   1.000
    3.3301096860320669    0.0000000000000000    0.0000000000000000
   -1.6650548430160335    2.8839595854901110    0.0000000000000000
    0.0000000000000000    0.0000000000000000   24.0311307523104922
   C    F    H    Hf   O 
    1    1    1    2    1
Direct
    0.0000000000000000    0.0000000000000000    0.5213270974815164     C1
    0.3333329854322145    0.6666669831836742    0.6254857878822582     F1
    0.6666669847440474    0.3333329859851446    0.3745142121177418     H1
    0.3333329854322145    0.6666669831836742    0.4706480166433470    Hf1
    0.6666669847440474    0.3333329859851446    0.5700293196853083    Hf2
    0.6666669847440474    0.3333329859851446    0.4157530526298109     O1
