Sc-Sc-C-CN-NCS
   1.000
    3.4276307235223276    0.0000000000000000    0.0000000000000000
   -1.7138153617611638    2.9684152813319988    0.0000000000000000
    0.0000000000000000    0.0000000000000000   27.1979568884544065
   C    N    S    Sc
    3    2    1    2
Direct
    0.0000000000000000    0.0000000000000000    0.5274166632297176     C1
    0.3333329854322145    0.6666669831836742    0.6250185464485000     C2
    0.6666669847440474    0.3333329859851445    0.3880988964287734     C3
    0.3333329854322145    0.6666669831836742    0.6690927911640113     N1
    0.6666669847440474    0.3333329859851445    0.4339681500888868     N2
    0.6666669847440474    0.3333329859851445    0.3309072088359887     S1
    0.3333329854322145    0.6666669831836742    0.4814009862046219    Sc1
    0.6666669847440474    0.3333329859851445    0.5727350030950330    Sc2
