Ti-Ti-N-H-H
   1.000
    3.0350853777277114    0.0000000000000000    0.0000000000000000
   -1.5175426888638557    2.6284610397662109    0.0000000000000000
    0.0000000000000000    0.0000000000000000   22.2281671515845716
   H    N    Ti
    2    1    2
Direct
    0.3333329854322144    0.6666669831836741    0.5951083173603713     H1
    0.6666669847440474    0.3333329859851445    0.4048916826396287     H2
    0.0000000000000000    0.0000000000000000    0.5000000456223784     N1
    0.3333329854322144    0.6666669831836741    0.4495626032913419    Ti1
    0.6666669847440474    0.3333329859851445    0.5504373960277149    Ti2
