Zr-Zr-C-NO-O
   1.000
    3.3373802493921292    0.0000000000000000    0.0000000000000000
   -1.6686901246960646    2.8902560780573832    0.0000000000000000
    0.0000000000000000    0.0000000000000000   24.2259467925670542
   C    N    O    Zr
    1    1    2    2
Direct
    0.0000000000000000    0.0000000000000000    0.4684334483254872     C1
    0.3333329854322145    0.6666669831836742    0.5745438222500460     N1
    0.3333329854322145    0.6666669831836742    0.6284974916744488     O1
    0.6666669847440474    0.3333329859851446    0.3715025083255512     O2
    0.3333329854322145    0.6666669831836742    0.4100943343146414    Zr1
    0.6666669847440474    0.3333329859851446    0.5233280970511458    Zr2
