Sc-Sc-C-NCO-PO
   1.000
    3.3534755929304452    0.0000000000000000    0.0000000000000000
   -1.6767377964652226    2.9041950544425883    0.0000000000000000
    0.0000000000000000    0.0000000000000000   27.7809825025156343
   C    N    O    P    Sc
    2    1    2    1    2
Direct
    0.0000000000000000    0.0000000000000000    0.4942480256135184     C1
    0.3333329854322145    0.6666669831836742    0.6326997076361643     C2
    0.3333329854322145    0.6666669831836742    0.5878300848685699     N1
    0.3333329854322145    0.6666669831836742    0.6760373755973162     O1
    0.6666669847440474    0.3333329859851446    0.3239626244026838     O2
    0.6666669847440474    0.3333329859851446    0.3777594934606697     P1
    0.3333329854322145    0.6666669831836742    0.4509918384092707    Sc1
    0.6666669847440474    0.3333329859851446    0.5399249299332490    Sc2
