Hf-Hf-C-NO-SCN
   1.000
    3.4428059970652263    0.0000000000000000    0.0000000000000000
   -1.7214029985326131    2.9815574537584224    0.0000000000000000
    0.0000000000000000    0.0000000000000000   27.3491496371467058
   C    Hf   N    O    S 
    2    2    2    1    1
Direct
    0.0000000000000000    0.0000000000000000    0.5366072997497042     C1
    0.6666669847440474    0.3333329859851446    0.3726126064267316     C2
    0.3333329854322145    0.6666669831836742    0.4959342915694040    Hf1
    0.6666669847440474    0.3333329859851446    0.5884188255419895    Hf2
    0.3333329854322145    0.6666669831836742    0.6216814246387368     N1
    0.6666669847440474    0.3333329859851446    0.3290778733308710     N2
    0.3333329854322145    0.6666669831836742    0.6709221266691290     O1
    0.6666669847440474    0.3333329859851446    0.4341336686666552     S1
