Sc-Sc-C-PO-OCN
   1.000
    3.3556326560556613    0.0000000000000000    0.0000000000000000
   -1.6778163280278307    2.9060631259058387    0.0000000000000000
    0.0000000000000000    0.0000000000000000   27.7463920865654181
   C    N    O    P    Sc
    2    1    2    1    2
Direct
    0.0000000000000000    0.0000000000000000    0.5051219330836930     C1
    0.6666669847440473    0.3333329859851446    0.3671958835701334     C2
    0.6666669847440473    0.3333329859851446    0.3243664968014969     N1
    0.3333329854322145    0.6666669831836742    0.6756335031985031     O1
    0.6666669847440473    0.3333329859851446    0.4154068608446357     O2
    0.3333329854322145    0.6666669831836742    0.6217808340870991     P1
    0.3333329854322145    0.6666669831836742    0.4595454673558783    Sc1
    0.6666669847440473    0.3333329859851446    0.5485453815667951    Sc2
