Zr-Zr-N-O-H
   1.000
    3.2592441394979672    0.0000000000000000    0.0000000000000000
   -1.6296220697489836    2.8225882219355460    0.0000000000000000
    0.0000000000000000    0.0000000000000000   22.6212997938197589
   H    N    O    Zr
    1    1    1    2
Direct
    0.6666669847440474    0.3333329859851446    0.3978551224743877     H1
    0.0000000000000000    0.0000000000000000    0.5003277022445460     N1
    0.3333329854322145    0.6666669831836742    0.6021448775256124     O1
    0.3333329854322145    0.6666669831836742    0.4410588373489360    Zr1
    0.6666669847440474    0.3333329859851446    0.5580863670379922    Zr2
