Sc-Sc-N-CN-O
   1.000
    3.3079883318304248    0.0000000000000000    0.0000000000000000
   -1.6539941659152124    2.8648019307784520    0.0000000000000000
    0.0000000000000000    0.0000000000000000   24.0028856501231544
   C    N    O    Sc
    1    2    1    2
Direct
    0.3333329854322145    0.6666669831836742    0.5751870394809440     C1
    0.0000000000000000    0.0000000000000000    0.4702653715157574     N1
    0.3333329854322145    0.6666669831836742    0.6250450828626173     N2
    0.6666669847440474    0.3333329859851446    0.3749549171373827     O1
    0.3333329854322145    0.6666669831836742    0.4035944326106161    Sc1
    0.6666669847440474    0.3333329859851446    0.5122832961041903    Sc2
