Ti-Ti-N-NO-H
   1.000
    3.0781096389164970    0.0000000000000000    0.0000000000000000
   -1.5390548194582485    2.6657211429323304    0.0000000000000000
    0.0000000000000000    0.0000000000000000   23.7290362013263980
   H    N    O    Ti
    1    2    1    2
Direct
    0.6666669847440474    0.3333329859851446    0.3792821555684138     H1
    0.0000000000000000    0.0000000000000000    0.4664546496710567     N1
    0.3333329854322145    0.6666669831836742    0.5660829461049800     N2
    0.3333329854322145    0.6666669831836742    0.6207178444315862     O1
    0.3333329854322145    0.6666669831836742    0.4198220625353417    Ti1
    0.6666669847440474    0.3333329859851446    0.5170926284368322    Ti2
