 Y-Y-C-F-Br                             
   1.0000000000000000     
     3.6691145406082817   -0.0000000000000000    0.0000000000000000
    -1.8345572703041404    3.1775464015835828    0.0000000000000000
     0.0000000000000017    0.0000000000000027   25.8920292667077447
   C    Br   F    Y 
     1     1     1     2
Direct
 -0.0000000000000000  0.0000000000000000  0.4936895785150727
  0.6666669847440474  0.3333329859851446  0.6217150276931573
  0.3333329854322145  0.6666669831836742  0.3976466687562722
  0.3333329854322145  0.6666669831836742  0.5454768671364989
  0.6666669847440474  0.3333329859851446  0.4410286466404785

  0.00000000E+00  0.00000000E+00  0.00000000E+00
  0.00000000E+00  0.00000000E+00  0.00000000E+00
  0.00000000E+00  0.00000000E+00  0.00000000E+00
  0.00000000E+00  0.00000000E+00  0.00000000E+00
  0.00000000E+00  0.00000000E+00  0.00000000E+00
