Y-Y-C-O-OCN
   1.000
    3.6064543502436397    0.0000000000000000    0.0000000000000000
   -1.8032271751218198    3.1232810848984172    0.0000000000000000
    0.0000000000000000    0.0000000000000000   25.6288635480043148
   C    N    O    Y 
    2    1    2    2
Direct
    0.0000000000000000    0.0000000000000000    0.5502334484952229     C1
    0.6666669847440474    0.3333329859851446    0.3975967865413271     C2
    0.6666669847440474    0.3333329859851446    0.3511665658971764     N1
    0.3333329854322145    0.6666669831836743    0.6488334341028237     O1
    0.6666669847440474    0.3333329859851446    0.4495321416818689     O2
    0.3333329854322145    0.6666669831836743    0.5014357061202670     Y1
    0.6666669847440474    0.3333329859851446    0.6222172566243831     Y2
