Ti-Ti-C-OH-OH
   1.000
    3.1126338988359619    0.0000000000000000    0.0000000000000000
   -1.5563169494179809    2.6956200290585657    0.0000000000000000
    0.0000000000000000    0.0000000000000000   24.7718577496048340
   C    H    O    Ti
    1    2    2    2
Direct
    0.0000000000000000    0.0000000000000000    0.5000000389232229     C1
    0.3333329854322145    0.6666669831836742    0.6366844953264124     H1
    0.6666669847440474    0.3333329859851446    0.3633155046735876     H2
    0.3333329854322145    0.6666669831836742    0.5968341796196854     O1
    0.6666669847440474    0.3333329859851446    0.4031658203803247     O2
    0.3333329854322145    0.6666669831836742    0.4540924893661243    Ti1
    0.6666669847440474    0.3333329859851446    0.5459075100529318    Ti2
