Zr-Zr-C-O-Br
   1.000
    3.3920986467740675    0.0000000000000000    0.0000000000000000
   -1.6960493233870337    2.9376436002455999    0.0000000000000000
    0.0000000000000000    0.0000000000000000   23.5599625358723195
   Br   C    O    Zr
    1    1    1    2
Direct
    0.6666669847440474    0.3333329859851446    0.3820040030325443    Br1
    0.0000000000000000    0.0000000000000000    0.5181590550369756     C1
    0.3333329854322145    0.6666669831836742    0.6179959969674557     O1
    0.3333329854322145    0.6666669831836742    0.4660951851766746    Zr1
    0.6666669847440474    0.3333329859851446    0.5785017648149651    Zr2
