Sc-Sc-C-NCS-F
   1.000
    3.3978009619134948    0.0000000000000000    0.0000000000000000
   -1.6989004809567474    2.9425819500088881    0.0000000000000000
    0.0000000000000000    0.0000000000000000   25.7021413562205758
   C    F    N    S    Sc
    2    1    1    1    2
Direct
    0.0000000000000000    0.0000000000000000    0.4416529427707023     C1
    0.3333329854322146    0.6666669831836742    0.5893162141336813     C2
    0.6666669847440474    0.3333329859851446    0.3501653763110196     F1
    0.3333329854322146    0.6666669831836742    0.5408315323506142     N1
    0.3333329854322146    0.6666669831836742    0.6498346236889803     S1
    0.3333329854322146    0.6666669831836742    0.3929816200564653    Sc1
    0.6666669847440474    0.3333329859851446    0.4900866922813523    Sc2
