Y-Y-C-Br-H
   1.000
    3.6897382884683019    0.0000000000000000    0.0000000000000000
   -1.8448691442341509    3.1954070911527586    0.0000000000000000
    0.0000000000000000    0.0000000000000000   23.7036202554260882
   Br   C    H    Y 
    1    1    1    2
Direct
    0.3333329854322145    0.6666669831836742    0.6203111633152419    Br1
    0.0000000000000000    0.0000000000000000    0.4802817030616581     C1
    0.6666669847440474    0.3333329859851446    0.3796888366847581     H1
    0.3333329854322145    0.6666669831836742    0.4230389618652419     Y1
    0.6666669847440474    0.3333329859851446    0.5371295100749174     Y2
