Y-Y-N-O-O
   1.000
    3.5709601929145580    0.0000000000000000    0.0000000000000000
   -1.7854800964572790    3.0925422429597065    0.0000000000000000
    0.0000000000000000    0.0000000000000000   22.5682228752924807
   N    O    Y 
    1    2    2
Direct
    0.0000000000000000    0.0000000000000000    0.5000000324605610     N1
    0.3333329854322145    0.6666669831836741    0.6012091847137362     O1
    0.6666669847440475    0.3333329859851446    0.3987908152862639     O2
    0.3333329854322145    0.6666669831836741    0.4322373718121117     Y1
    0.6666669847440475    0.3333329859851446    0.5677626277033937     Y2
