Hf-Hf-N-CN-Cl
   1.000
    3.3567552213379237    0.0000000000000000    0.0000000000000000
   -1.6783776106689619    2.9070352959592531    0.0000000000000000
    0.0000000000000000    0.0000000000000000   24.7161303876266736
   C    Cl   Hf   N 
    1    1    2    2
Direct
    0.3333329854322145    0.6666669831836742    0.5869656361774582     C1
    0.6666669847440474    0.3333329859851447    0.3641346707130805    Cl1
    0.3333329854322145    0.6666669831836742    0.4363596833303810    Hf1
    0.6666669847440474    0.3333329859851447    0.5283369531390923    Hf2
    0.0000000000000000    0.0000000000000000    0.4816745631643587     N1
    0.3333329854322145    0.6666669831836742    0.6358653292869196     N2
