 Sc-Sc-C-F-H                            
   1.0000000000000000     
     3.2886969526806666    0.0000000000000001   -0.0000000000000000
    -1.6443484763403338    2.8480951063673001    0.0000000000000001
     0.0000000000000015    0.0000000000000026   32.2285611340268261
   C    F    H    Sc
     1     1     1     2
Direct
 -0.0000000000000000  0.0000000000000000  0.4977609689588145
  0.3333329854322145  0.6666669831836742  0.5727803925788102
  0.6666669847440474  0.3333329859851446  0.4271193704715636
  0.3333329854322145  0.6666669831836742  0.4589150972321567
  0.6666669847440474  0.3333329859851446  0.5373383445496456

  0.00000000E+00  0.00000000E+00  0.00000000E+00
  0.00000000E+00  0.00000000E+00  0.00000000E+00
  0.00000000E+00  0.00000000E+00  0.00000000E+00
  0.00000000E+00  0.00000000E+00  0.00000000E+00
  0.00000000E+00  0.00000000E+00  0.00000000E+00
