Sc-Sc-N-OCl-PO
   1.000
    3.4028465256647737    0.0000000000000000    0.0000000000000000
   -1.7014232628323869    2.9469515364095300    0.0000000000000000
    0.0000000000000000    0.0000000000000000   27.2808633148748285
   Cl   N    O    P    Sc
    1    1    2    1    2
Direct
    0.3333329854322145    0.6666669831836742    0.6700984167501485    Cl1
    0.0000000000000000    0.0000000000000000    0.4720035945443524     N1
    0.3333329854322145    0.6666669831836742    0.5704414115385412     O1
    0.6666669847440474    0.3333329859851446    0.3299015832498515     O2
    0.6666669847440474    0.3333329859851446    0.3842469327767534     P1
    0.3333329854322145    0.6666669831836742    0.4894973891157185    Sc1
    0.6666669847440474    0.3333329859851446    0.6041357159736205    Sc2
