Y-Y-C-OH-OH
   1.000
    3.5993766632717117    0.0000000000000000    0.0000000000000000
   -1.7996883316358558    3.1171516281932194    0.0000000000000000
    0.0000000000000000    0.0000000000000000   25.3317140918857042
   C    H    O    Y 
    1    2    2    2
Direct
    0.0000000000000000    0.0000000000000000    0.5000000284645478     C1
    0.3333329854322145    0.6666669831836742    0.6447141331473145     H1
    0.6666669847440475    0.3333329859851446    0.3552858668526854     H2
    0.3333329854322145    0.6666669831836742    0.6058298180680302     O1
    0.6666669847440475    0.3333329859851446    0.3941701819319775     O2
    0.3333329854322145    0.6666669831836742    0.4456405457432535     Y1
    0.6666669847440475    0.3333329859851446    0.5543594538319025     Y2
