Sc-Sc-C-H-OCN
   1.000
    3.3357665447152085    0.0000000000000000    0.0000000000000000
   -1.6678832723576043    2.8888585688060959    0.0000000000000000
    0.0000000000000000    0.0000000000000000   25.2632178560110994
   C    H    N    O    Sc
    2    1    1    1    2
Direct
    0.0000000000000000    0.0000000000000000    0.5549512809399764     C1
    0.6666669847440474    0.3333329859851446    0.4032724000343986     C2
    0.3333329854322145    0.6666669831836742    0.6437508455456495     H1
    0.6666669847440474    0.3333329859851446    0.3562491544543505     N1
    0.6666669847440474    0.3333329859851446    0.4561654957131696     O1
    0.3333329854322145    0.6666669831836742    0.5051574621501933    Sc1
    0.6666669847440474    0.3333329859851446    0.6043954093480246    Sc2
