Hf-Hf-C-CN-OCl
   1.000
    3.2766290152441999    0.0000000000000000    0.0000000000000000
   -1.6383145076221000    2.8376439659784989    0.0000000000000000
    0.0000000000000000    0.0000000000000000   27.7032007666841480
   C    Cl   Hf   N    O 
    2    1    2    1    1
Direct
    0.0000000000000000    0.0000000000000000    0.5334318324948253     C1
    0.3333329854322144    0.6666669831836742    0.6314230254608062     C2
    0.6666669847440475    0.3333329859851446    0.3248722079371924    Cl1
    0.3333329854322144    0.6666669831836742    0.4821354758032317    Hf1
    0.6666669847440475    0.3333329859851446    0.5787974716762545    Hf2
    0.3333329854322144    0.6666669831836742    0.6751277920628076     N1
    0.6666669847440475    0.3333329859851446    0.4501475910922054     O1
