Ti-Ti-C-NCO-O
   1.000
    3.1130674284386308    0.0000000000000000    0.0000000000000000
   -1.5565337142193154    2.6959954767187937    0.0000000000000000
    0.0000000000000000    0.0000000000000000   25.1573271237281162
   C    N    O    Ti
    2    1    2    2
Direct
    0.0000000000000000    0.0000000000000000    0.4462976340621966     C1
    0.3333329854322145    0.6666669831836742    0.5944110366623060     C2
    0.3333329854322145    0.6666669831836742    0.5448748871086616     N1
    0.3333329854322145    0.6666669831836742    0.6422513426908816     O1
    0.6666669847440474    0.3333329859851446    0.3577486573091184     O2
    0.3333329854322145    0.6666669831836742    0.3934436765953115    Ti1
    0.6666669847440474    0.3333329859851446    0.4913564816697987    Ti2
