Zr-Zr-C-NO-OCN
   1.000
    3.4226848337242934    0.0000000000000000    0.0000000000000000
   -1.7113424168621467    2.9641320151471535    0.0000000000000000
    0.0000000000000000    0.0000000000000000   26.7998970097874576
   C    N    O    Zr
    2    2    2    2
Direct
    0.0000000000000000    0.0000000000000000    0.5235033199446579     C1
    0.6666669847440473    0.3333329859851446    0.3801695013960310     C2
    0.3333329854322145    0.6666669831836742    0.6146108172217750     N1
    0.6666669847440473    0.3333329859851446    0.3358221860596386     N2
    0.3333329854322145    0.6666669831836742    0.6641778139403614     O1
    0.6666669847440473    0.3333329859851446    0.4300277634380946     O2
    0.3333329854322145    0.6666669831836742    0.4816819060838211    Zr1
    0.6666669847440473    0.3333329859851446    0.5782548738681001    Zr2
