Sc-Sc-N-Cl-Cl
   1.000
    3.3709315176713792    0.0000000000000000    0.0000000000000000
   -1.6854657588356896    2.9193123287170457    0.0000000000000000
    0.0000000000000000    0.0000000000000000   23.7551315582512430
   Cl   N    Sc
    2    1    2
Direct
    0.3333329854322145    0.6666669831836742    0.6211344913863932    Cl1
    0.6666669847440474    0.3333329859851446    0.3788655086136068    Cl2
    0.0000000000000000    0.0000000000000000    0.5000000346071711     N1
    0.3333329854322145    0.6666669831836742    0.4499318484695847    Sc1
    0.6666669847440474    0.3333329859851446    0.5500681510138812    Sc2
