Ti-Ti-N-PO-Br
   1.000
    3.2387092028513629    0.0000000000000000    0.0000000000000000
   -1.6193546014256814    2.8048044451360781    0.0000000000000000
    0.0000000000000000    0.0000000000000000   25.2425783693545540
   Br   N    O    P    Ti
    1    1    1    1    2
Direct
    0.6666669847440474    0.3333329859851446    0.3565404400576742    Br1
    0.0000000000000000    0.0000000000000000    0.4697370053077312     N1
    0.3333329854322145    0.6666669831836742    0.6434595599423258     O1
    0.3333329854322145    0.6666669831836742    0.5843081751437131     P1
    0.3333329854322145    0.6666669831836742    0.4300117184301885    Ti1
    0.6666669847440474    0.3333329859851446    0.5117687086285400    Ti2
