Hf-Hf-C-OH-OCN
   1.000
    3.3188630131511925    0.0000000000000000    0.0000000000000000
   -1.6594315065755962    2.8742196810541643    0.0000000000000000
    0.0000000000000000    0.0000000000000000   26.6154749383356801
   C    H    Hf   N    O 
    2    1    2    1    2
Direct
    0.0000000000000000    0.0000000000000000    0.5296095275537800     C1
    0.6666669847440474    0.3333329859851446    0.3827557025837622     C2
    0.3333329854322145    0.6666669831836741    0.6618508585380596     H1
    0.3333329854322145    0.6666669831836741    0.4854171800784539    Hf1
    0.6666669847440474    0.3333329859851446    0.5746800810204861    Hf2
    0.6666669847440474    0.3333329859851446    0.3381491414619404     N1
    0.3333329854322145    0.6666669831836741    0.6246655056358099     O1
    0.6666669847440474    0.3333329859851446    0.4330564560716127     O2
