Y-Y-C-F-Br
   1.000
    3.6794304689134556    0.0000000000000000    0.0000000000000000
   -1.8397152344567278    3.1864802575611897    0.0000000000000000
    0.0000000000000000    0.0000000000000000   23.8185304487274756
   Br   C    F    Y 
    1    1    1    2
Direct
    0.6666669847440475    0.3333329859851447    0.3778570646654162    Br1
    0.0000000000000000    0.0000000000000000    0.5173008647680742     C1
    0.3333329854322145    0.6666669831836742    0.6221429353345838     F1
    0.3333329854322145    0.6666669831836742    0.4608638726969790     Y1
    0.6666669847440475    0.3333329859851447    0.5746960503915768     Y2
