Zr-Zr-C-NO-NCO
   1.000
    3.4176233772614721    0.0000000000000000    0.0000000000000000
   -1.7088116886307361    2.9597486652623388    0.0000000000000000
    0.0000000000000000    0.0000000000000000   26.8122928743422442
   C    N    O    Zr
    2    2    2    2
Direct
    0.0000000000000000    0.0000000000000000    0.5236882345387655     C1
    0.6666669847440474    0.3333329859851446    0.3805986060979507     C2
    0.3333329854322145    0.6666669831836742    0.6148134727420118     N1
    0.6666669847440474    0.3333329859851446    0.4271460644892354     N2
    0.3333329854322145    0.6666669831836742    0.6643330713199669     O1
    0.6666669847440474    0.3333329859851446    0.3356669286800332     O2
    0.3333329854322145    0.6666669831836742    0.4811964572253460    Zr1
    0.6666669847440474    0.3333329859851446    0.5780681936941330    Zr2
