Zr-Zr-C-PO-PO
   1.000
    3.3034493637023226    0.0000000000000000    0.0000000000000000
   -1.6517246818511613    2.8608710690677199    0.0000000000000000
    0.0000000000000000    0.0000000000000000   27.6181259740244549
   C    O    P    Zr
    1    2    2    2
Direct
    0.0000000000000000    0.0000000000000000    0.5000000309951600     C1
    0.3333329854322145    0.6666669831836742    0.6741270566849928     O1
    0.6666669847440473    0.3333329859851446    0.3258729433150072     O2
    0.3333329854322145    0.6666669831836742    0.6201069105497307     P1
    0.6666669847440473    0.3333329859851446    0.3798930894502690     P2
    0.3333329854322145    0.6666669831836742    0.4526979945093815    Zr1
    0.6666669847440473    0.3333329859851446    0.5473020050279954    Zr2
