Ti-Ti-N-CN-Br
   1.000
    3.2508367429770080    0.0000000000000000    0.0000000000000000
   -1.6254183714885040    2.8153072029883988    0.0000000000000000
    0.0000000000000000    0.0000000000000000   24.5088023889907660
   Br   C    N    Ti
    1    1    2    2
Direct
    0.6666669847440474    0.3333329859851446    0.3672150053338696    Br1
    0.3333329854322145    0.6666669831836742    0.5837187695266555     C1
    0.0000000000000000    0.0000000000000000    0.4842465259413238     N1
    0.3333329854322145    0.6666669831836742    0.6327849946661304     N2
    0.3333329854322145    0.6666669831836742    0.4429467807451243    Ti1
    0.6666669847440474    0.3333329859851446    0.5266523244779326    Ti2
