Zr-Zr-C-NCO-OH
   1.000
    3.3610807536755982    0.0000000000000000    0.0000000000000000
   -1.6805403768377991    2.9107813168365486    0.0000000000000000
    0.0000000000000000    0.0000000000000000   26.7225467014880351
   C    H    N    O    Zr
    2    1    1    2    2
Direct
    0.0000000000000000    0.0000000000000000    0.4703824728896642     C1
    0.3333329854322145    0.6666669831836742    0.6180885605319109     C2
    0.6666669847440474    0.3333329859851446    0.3367942472151741     H1
    0.3333329854322145    0.6666669831836742    0.5714592044778648     N1
    0.3333329854322145    0.6666669831836742    0.6632057527848259     O1
    0.6666669847440474    0.3333329859851446    0.3737192716272950     O2
    0.3333329854322145    0.6666669831836742    0.4244369308980862    Zr1
    0.6666669847440474    0.3333329859851446    0.5167414800159171    Zr2
