Y-Y-C-NCS-OH
   1.000
    3.6434212859120043    0.0000000000000000    0.0000000000000000
   -1.8217106429560022    3.1552953902926184    0.0000000000000000
    0.0000000000000000    0.0000000000000000   27.2052776695764926
   C    H    N    O    S    Y 
    2    1    1    1    1    2
Direct
    0.0000000000000000    0.0000000000000000    0.4647120506069875     C1
    0.3333329854322146    0.6666669831836742    0.6117826510432206     C2
    0.6666669847440474    0.3333329859851446    0.3308181636412646     H1
    0.3333329854322146    0.6666669831836742    0.5660204642226911     N1
    0.6666669847440474    0.3333329859851446    0.3670515089096305     O1
    0.3333329854322146    0.6666669831836742    0.6691818363587354     S1
    0.3333329854322146    0.6666669831836742    0.4141017255271395     Y1
    0.6666669847440474    0.3333329859851446    0.5147398550448956     Y2
