Ti-Ti-N-NCS-Br
   1.000
    3.2801817951169303    0.0000000000000000    0.0000000000000000
   -1.6400908975584652    2.8407207636076022    0.0000000000000000
    0.0000000000000000    0.0000000000000000   25.9711714556073119
   Br   C    N    S    Ti
    1    1    2    1    2
Direct
    0.6666669847440474    0.3333329859851446    0.3465380841747457    Br1
    0.3333329854322145    0.6666669831836742    0.5936981730151120     C1
    0.0000000000000000    0.0000000000000000    0.4564727421630633     N1
    0.3333329854322145    0.6666669831836742    0.5455125965095653     N2
    0.3333329854322145    0.6666669831836742    0.6534619158252544     S1
    0.3333329854322145    0.6666669831836742    0.4178721926835779    Ti1
    0.6666669847440474    0.3333329859851446    0.4964291093162978    Ti2
