Y-Y-C-NO-NCS
   1.000
    3.6805812157589624    0.0000000000000000    0.0000000000000000
   -1.8402906078794812    3.1874768335489772    0.0000000000000000
    0.0000000000000000    0.0000000000000000   27.4876431808774520
   C    N    O    S    Y 
    2    2    1    1    2
Direct
    0.0000000000000000    0.0000000000000000    0.5286446382925063     C1
    0.6666669847440475    0.3333329859851447    0.3841984360036283     C2
    0.3333329854322146    0.6666669831836743    0.6254462684796331     N1
    0.6666669847440475    0.3333329859851447    0.4295646173248706     N2
    0.3333329854322146    0.6666669831836743    0.6725801502596227     O1
    0.6666669847440475    0.3333329859851447    0.3274198497403772     S1
    0.3333329854322146    0.6666669831836743    0.4794170249598582     Y1
    0.6666669847440475    0.3333329859851447    0.5793137090981624     Y2
