Y-Y-N-PO-O
   1.000
    3.5548025099133485    0.0000000000000000    0.0000000000000000
   -1.7774012549566742    3.0785492790309936    0.0000000000000000
    0.0000000000000000    0.0000000000000000   25.2118135845912690
   N    O    P    Y 
    1    2    1    2
Direct
    0.0000000000000000    0.0000000000000000    0.4543381701145344     N1
    0.3333329854322145    0.6666669831836741    0.6430244904912141     O1
    0.6666669847440475    0.3333329859851446    0.3569755095087859     O2
    0.3333329854322145    0.6666669831836741    0.5836702337958909     P1
    0.3333329854322145    0.6666669831836741    0.3850239226532585     Y1
    0.6666669847440475    0.3333329859851446    0.4973633677672467     Y2
