Hf-Hf-C-CN-SCN
   1.000
    3.4292451136604241    0.0000000000000000    0.0000000000000000
   -1.7146225568302120    2.9698133842099033    0.0000000000000000
    0.0000000000000000    0.0000000000000000   27.5738530983316465
   C    Hf   N    S 
    3    2    2    1
Direct
    0.0000000000000000    0.0000000000000000    0.5348566027042946     C1
    0.3333329854322145    0.6666669831836742    0.6298280503151009     C2
    0.6666669847440475    0.3333329859851446    0.3695689365089073     C3
    0.3333329854322145    0.6666669831836742    0.4910407801735371    Hf1
    0.6666669847440475    0.3333329859851446    0.5776863011927585    Hf2
    0.3333329854322145    0.6666669831836742    0.6736038315753360     N1
    0.6666669847440475    0.3333329859851446    0.3263961684246640     N2
    0.6666669847440475    0.3333329859851446    0.4306954207720033     S1
