Ti-Ti-N-CN-NO
   1.000
    3.1473831240123227    0.0000000000000000    0.0000000000000000
   -1.5736915620061613    2.7257137408578886    0.0000000000000000
    0.0000000000000000    0.0000000000000000   25.3970543051846995
   C    N    O    Ti
    1    3    1    2
Direct
    0.3333329854322145    0.6666669831836742    0.5984976304022211     C1
    0.0000000000000000    0.0000000000000000    0.5152474321686776     N1
    0.3333329854322145    0.6666669831836742    0.6456281940475794     N2
    0.6666669847440475    0.3333329859851446    0.4361590441762325     N3
    0.6666669847440475    0.3333329859851446    0.3543718059524206     O1
    0.3333329854322145    0.6666669831836742    0.3961102131734049    Ti1
    0.6666669847440475    0.3333329859851446    0.5368792364354280    Ti2
