Zr-Zr-N-NCO-F
   1.000
    3.3857016379274811    0.0000000000000000    0.0000000000000000
   -1.6928508189637406    2.9321036280644810    0.0000000000000000
    0.0000000000000000    0.0000000000000000   25.5025125798319650
   C    F    N    O    Zr
    1    1    2    1    2
Direct
    0.3333329854322145    0.6666669831836742    0.5998330877067531     C1
    0.6666669847440475    0.3333329859851446    0.3529064037053914     F1
    0.0000000000000000    0.0000000000000000    0.4479700573976118     N1
    0.3333329854322145    0.6666669831836742    0.5509138554923043     N2
    0.3333329854322145    0.6666669831836742    0.6470935962946086     O1
    0.3333329854322145    0.6666669831836742    0.4041365367010589    Zr1
    0.6666669847440475    0.3333329859851446    0.4945510999153622    Zr2
