Zr-Zr-N-NCS-PO
   1.000
    3.3376016171795948    0.0000000000000000    0.0000000000000000
   -1.6688008085897974    2.8904477881849160    0.0000000000000000
    0.0000000000000000    0.0000000000000000   28.1405886778364085
   C    N    O    P    S    Zr
    1    2    1    1    1    2
Direct
    0.3333329854322146    0.6666669831836742    0.6250901581520196     C1
    0.0000000000000000    0.0000000000000000    0.4877569629490388     N1
    0.3333329854322146    0.6666669831836742    0.5803135635469561     N2
    0.6666669847440474    0.3333329859851446    0.3198227337400521     O1
    0.6666669847440474    0.3333329859851446    0.3729269392204549     P1
    0.3333329854322146    0.6666669831836742    0.6801772662599479     S1
    0.3333329854322146    0.6666669831836742    0.4426103351022709    Zr1
    0.6666669847440474    0.3333329859851446    0.5311087429973618    Zr2
