Ti-Ti-N-PO-F
   1.000
    3.2231082831905908    0.0000000000000000    0.0000000000000000
   -1.6115541415952954    2.7912936523910856    0.0000000000000000
    0.0000000000000000    0.0000000000000000   24.6428789040053218
   F    N    O    P    Ti
    1    1    1    1    2
Direct
    0.6666669847440474    0.3333329859851446    0.3652170687953666     F1
    0.0000000000000000    0.0000000000000000    0.4548841655531395     N1
    0.3333329854322145    0.6666669831836742    0.6347829312046334     O1
    0.3333329854322145    0.6666669831836742    0.5741864706738208     P1
    0.3333329854322145    0.6666669831836742    0.4143597622901130    Ti1
    0.6666669847440474    0.3333329859851446    0.4992946486635876    Ti2
