Zr-Zr-C-Br-OH
   1.000
    3.4297676128049512    0.0000000000000000    0.0000000000000000
   -1.7148838064024756    2.9702658817646195    0.0000000000000000
    0.0000000000000000    0.0000000000000000   24.7320981621695140
   Br   C    H    O    Zr
    1    1    1    1    2
Direct
    0.3333329854322145    0.6666669831836742    0.6361004254072347    Br1
    0.0000000000000000    0.0000000000000000    0.5062857636794555     C1
    0.6666669847440474    0.3333329859851446    0.3638995745927654     H1
    0.6666669847440474    0.3333329859851446    0.4038034312857353     O1
    0.3333329854322145    0.6666669831836742    0.4578951269755092    Zr1
    0.6666669847440474    0.3333329859851446    0.5556570827607518    Zr2
