Ti-Ti-C-F-F
   1.000
    3.2546824312843365    0.0000000000000000    0.0000000000000000
   -1.6273412156421683    2.8186376667392556    0.0000000000000000
    0.0000000000000000    0.0000000000000000   22.6285212199690520
   C    F    Ti
    1    2    2
Direct
    0.0000000000000000    0.0000000000000000    0.5000000389717572     C1
    0.3333329854322145    0.6666669831836742    0.6022718447877298     F1
    0.6666669847440473    0.3333329859851446    0.3977281552122702     F2
    0.3333329854322145    0.6666669831836742    0.4512645288924161    Ti1
    0.6666669847440473    0.3333329859851446    0.5487354705259053    Ti2
