Sc-Sc-C-NCS-OCN
   1.000
    3.4045589337878917    0.0000000000000000    0.0000000000000000
   -1.7022794668939458    2.9484345253063902    0.0000000000000000
    0.0000000000000000    0.0000000000000000   28.3315472086874891
   C    N    O    S    Sc
    3    2    1    1    2
Direct
    0.0000000000000000    0.0000000000000000    0.4934580323493674     C1
    0.3333329854322146    0.6666669831836742    0.6274638686084754     C2
    0.6666669847440474    0.3333329859851446    0.3596131615712667     C3
    0.3333329854322146    0.6666669831836742    0.5834243066316960     N1
    0.6666669847440474    0.3333329859851446    0.3176670844591316     N2
    0.6666669847440474    0.3333329859851446    0.4067551771747436     O1
    0.3333329854322146    0.6666669831836742    0.6823329155408684     S1
    0.3333329854322146    0.6666669831836742    0.4497340856340352    Sc1
    0.6666669847440474    0.3333329859851446    0.5377092479794796    Sc2
