Zr-Zr-C-NCO-OCN
   1.000
    3.3856316982252683    0.0000000000000000    0.0000000000000000
   -1.6928158491126342    2.9320430584399300    0.0000000000000000
    0.0000000000000000    0.0000000000000000   28.2535899806089752
   C    N    O    Zr
    3    2    2    2
Direct
    0.0000000000000000    0.0000000000000000    0.4997451492981071     C1
    0.3333329854322145    0.6666669831836742    0.6388348482634250     C2
    0.6666669847440474    0.3333329859851446    0.3605998726818385     C3
    0.3333329854322145    0.6666669831836742    0.5946606699137112     N1
    0.6666669847440474    0.3333329859851446    0.3185435906083753     N2
    0.3333329854322145    0.6666669831836742    0.6814564093916247     O1
    0.6666669847440474    0.3333329859851446    0.4078743321107963     O2
    0.3333329854322145    0.6666669831836742    0.4570586090581548    Zr1
    0.6666669847440474    0.3333329859851446    0.5434294112921944    Zr2
