Y-Y-C-NO-PO
   1.000
    3.6379603190966887    0.0000000000000000    0.0000000000000000
   -1.8189801595483444    3.1505660543425611    0.0000000000000000
    0.0000000000000000    0.0000000000000000   26.9424029282042596
   C    N    O    P    Y 
    1    1    2    1    2
Direct
    0.0000000000000000    0.0000000000000000    0.5175840044399476     C1
    0.3333329854322145    0.6666669831836742    0.6177100338728587     N1
    0.3333329854322145    0.6666669831836742    0.6659540715806578     O1
    0.6666669847440473    0.3333329859851446    0.3340459284193423     O2
    0.6666669847440473    0.3333329859851446    0.3895708228874817     P1
    0.3333329854322145    0.6666669831836742    0.4710620240400333     Y1
    0.6666669847440473    0.3333329859851446    0.5723623116152824     Y2
