Y-Y-N-OCl-OCN
   1.000
    3.7257362859754197    0.0000000000000000    0.0000000000000000
   -1.8628681429877099    3.2265822714420311    0.0000000000000000
    0.0000000000000000    0.0000000000000000   26.9911100095465493
   C    Cl   N    O    Y 
    1    1    2    2    2
Direct
    0.6666669847440475    0.3333329859851446    0.3776594442591624     C1
    0.3333329854322145    0.6666669831836742    0.6665568775490609    Cl1
    0.0000000000000000    0.0000000000000000    0.5031662959591021     N1
    0.6666669847440475    0.3333329859851446    0.3334431224509392     N2
    0.3333329854322145    0.6666669831836742    0.5670082694729210     O1
    0.6666669847440475    0.3333329859851446    0.4265477385808201     O2
    0.3333329854322145    0.6666669831836742    0.4774512711868806     Y1
    0.6666669847440475    0.3333329859851446    0.5935728982983746     Y2
