Sc-Sc-C-PO-OH
   1.000
    3.3288313093288022    0.0000000000000000    0.0000000000000000
   -1.6644156546644011    2.8828524787876799    0.0000000000000000
    0.0000000000000000    0.0000000000000000   26.2239940070369144
   C    H    O    P    Sc
    1    1    2    1    2
Direct
    0.0000000000000000    0.0000000000000000    0.4761260532122250     C1
    0.6666669847440474    0.3333329859851446    0.3431971498157356     H1
    0.3333329854322145    0.6666669831836742    0.6568028501842644     O1
    0.6666669847440474    0.3333329859851446    0.3807031920250592     O2
    0.3333329854322145    0.6666669831836742    0.5997916132029160     P1
    0.3333329854322145    0.6666669831836742    0.4272477024369145    Sc1
    0.6666669847440474    0.3333329859851446    0.5220255785610952    Sc2
