 Sc-Sc-C-Cl-H                           
   1.0000000000000000     
     3.3754394605697642    0.0000000000000000   -0.0000000000000000
    -1.6877197302848816    2.9232163217852976   -0.0000000000000000
     0.0000000000000017    0.0000000000000031   30.5934166908223020
   C    Cl   H    Sc
     1     1     1     2
Direct
  0.0000000000000000 -0.0000000000000000  0.4883706977883051
  0.3333329854322145  0.6666669831836742  0.5846320671875042
  0.6666669847440474  0.3333329859851446  0.4153068405091111
  0.3333329854322145  0.6666669831836742  0.4478070333382387
  0.6666669847440474  0.3333329859851446  0.5290993470903790

  0.00000000E+00  0.00000000E+00  0.00000000E+00
  0.00000000E+00  0.00000000E+00  0.00000000E+00
  0.00000000E+00  0.00000000E+00  0.00000000E+00
  0.00000000E+00  0.00000000E+00  0.00000000E+00
  0.00000000E+00  0.00000000E+00  0.00000000E+00
