Y-Y-C-CN-OH
   1.000
    3.6520246310133824    0.0000000000000000    0.0000000000000000
   -1.8260123155066912    3.1627461057210891    0.0000000000000000
    0.0000000000000000    0.0000000000000000   25.6972434309987321
   C    H    N    O    Y 
    2    1    1    1    2
Direct
    0.0000000000000000    0.0000000000000000    0.4918146418018436     C1
    0.3333329854322145    0.6666669831836742    0.6031133109399627     C2
    0.6666669847440474    0.3333329859851446    0.3502321182490433     H1
    0.3333329854322145    0.6666669831836742    0.6497678817509567     N1
    0.6666669847440474    0.3333329859851446    0.3886071802894864     O1
    0.3333329854322145    0.6666669831836742    0.4380289580809789     Y1
    0.6666669847440474    0.3333329859851446    0.5444712429270823     Y2
