Y-Y-C-OCl-OCN
   1.000
    3.7507021286717475    0.0000000000000000    0.0000000000000000
   -1.8753510643358737    3.2482033254401030    0.0000000000000000
    0.0000000000000000    0.0000000000000000   26.9870936494533638
   C    Cl   N    O    Y 
    2    1    1    2    2
Direct
    0.0000000000000000    0.0000000000000000    0.5091991199984174     C1
    0.6666669847440474    0.3333329859851446    0.3776986009723364     C2
    0.3333329854322146    0.6666669831836742    0.6665072528037008    Cl1
    0.6666669847440474    0.3333329859851446    0.3334927471962991     N1
    0.3333329854322146    0.6666669831836742    0.5679650870878572     O1
    0.6666669847440474    0.3333329859851446    0.4266854786734778     O2
    0.3333329854322146    0.6666669831836742    0.4771275558458167     Y1
    0.6666669847440474    0.3333329859851446    0.5931851795476144     Y2
