Y-Y-C-Br-Br
   1.000
    3.7748432433613952    0.0000000000000000    0.0000000000000000
   -1.8874216216806976    3.2691101440992303    0.0000000000000000
    0.0000000000000000    0.0000000000000000   24.5471765993025883
   Br   C    Y 
    2    1    2
Direct
    0.3333329854322145    0.6666669831836743    0.6333590560367868    Br1
    0.6666669847440474    0.3333329859851446    0.3666409439632133    Br2
    0.0000000000000000    0.0000000000000000    0.5000000267069327     C1
    0.3333329854322145    0.6666669831836743    0.4455327293238084     Y1
    0.6666669847440474    0.3333329859851446    0.5544672702775736     Y2
