Y-Y-C-OCl-NCO
   1.000
    3.6661327960629855    0.0000000000000000    0.0000000000000000
   -1.8330663980314927    3.1749641350499975    0.0000000000000000
    0.0000000000000000    0.0000000000000000   27.4745798144467379
   C    Cl   N    O    Y 
    2    1    1    2    2
Direct
    0.0000000000000000    0.0000000000000000    0.5168086883361567     C1
    0.6666669847440474    0.3333329859851446    0.3715136512845493     C2
    0.3333329854322145    0.6666669831836742    0.6724244716103864    Cl1
    0.6666669847440474    0.3333329859851446    0.4168556386138626     N1
    0.3333329854322145    0.6666669831836742    0.6083944855583530     O1
    0.6666669847440474    0.3333329859851446    0.3275755283896135     O2
    0.3333329854322145    0.6666669831836742    0.4681309080921101     Y1
    0.6666669847440474    0.3333329859851446    0.5678793063075718     Y2
