Ti-Ti-C-SCN-Br
   1.000
    3.3548840835348228    0.0000000000000000    0.0000000000000000
   -1.6774420417674114    2.9054148430941136    0.0000000000000000
    0.0000000000000000    0.0000000000000000   26.3570750535871063
   Br   C    N    S    Ti
    1    2    1    1    2
Direct
    0.6666669847440474    0.3333329859851446    0.3414642930485237    Br1
    0.0000000000000000    0.0000000000000000    0.4498432398555336     C1
    0.3333329854322145    0.6666669831836741    0.6133518344271024     C2
    0.3333329854322145    0.6666669831836741    0.6585357069514763     N1
    0.3333329854322145    0.6666669831836741    0.5496547673084382     S1
    0.3333329854322145    0.6666669831836741    0.4108205092551465    Ti1
    0.6666669847440474    0.3333329859851446    0.4913501089971674    Ti2
