 La-La-C-O-F                            
   1.0000000000000000     
     3.8547306006952216    0.0000000000000012    0.0000000000000001
    -1.9273653003476083    3.3382946249492060    0.0000000000000002
     0.0000000000000031    0.0000000000000053   23.4585176461630738
   C    F    O    La
     1     1     1     2
Direct
  0.0000000000000000  0.0000000000000000  0.4951972299800259
  0.6666669847440474  0.3333329859851446  0.3899358808561666
  0.3333329854322145  0.6666669831836742  0.6075796510427551
  0.3333329854322145  0.6666669831836742  0.4409290688720200
  0.6666669847440474  0.3333329859851446  0.5800728073747021

  0.00000000E+00  0.00000000E+00  0.00000000E+00
  0.00000000E+00  0.00000000E+00  0.00000000E+00
  0.00000000E+00  0.00000000E+00  0.00000000E+00
  0.00000000E+00  0.00000000E+00  0.00000000E+00
  0.00000000E+00  0.00000000E+00  0.00000000E+00
