Ti-Ti-N-O-OCN
   1.000
    3.0971667515943770    0.0000000000000000    0.0000000000000000
   -1.5485833757971885    2.6822250866370698    0.0000000000000000
    0.0000000000000000    0.0000000000000000   25.0936884222024581
   C    N    O    Ti
    1    2    2    2
Direct
    0.6666669847440475    0.3333329859851446    0.4059511739138009     C1
    0.0000000000000000    0.0000000000000000    0.5548042294577090     N1
    0.6666669847440475    0.3333329859851446    0.3586559236958149     N2
    0.3333329854322145    0.6666669831836742    0.6413440763041851     O1
    0.6666669847440475    0.3333329859851446    0.4592553993135362     O2
    0.3333329854322145    0.6666669831836742    0.5109027062727409    Ti1
    0.6666669847440475    0.3333329859851446    0.6051245816478432    Ti2
