Zr-Zr-C-SCN-Cl
   1.000
    3.5157107056402790    0.0000000000000000    0.0000000000000000
   -1.7578553528201395    3.0446947834370932    0.0000000000000000
    0.0000000000000000    0.0000000000000000   26.7124231032007842
   C    Cl   N    S    Zr
    2    1    1    1    2
Direct
    0.0000000000000000    0.0000000000000000    0.4463387565793919     C1
    0.3333329854322145    0.6666669831836742    0.6185057146294350     C2
    0.6666669847440474    0.3333329859851446    0.3369218870646589    Cl1
    0.3333329854322145    0.6666669831836742    0.6630781129353411     N1
    0.3333329854322145    0.6666669831836742    0.5555242359436348     S1
    0.3333329854322145    0.6666669831836742    0.4034260511019225    Zr1
    0.6666669847440474    0.3333329859851446    0.4924643793390654    Zr2
