Zr-Zr-C-NO-H
   1.000
    3.3871111081625669    0.0000000000000000    0.0000000000000000
   -1.6935555540812834    2.9333242651066493    0.0000000000000000
    0.0000000000000000    0.0000000000000000   23.9840954803966788
   C    H    N    O    Zr
    1    1    1    1    2
Direct
    0.0000000000000000    0.0000000000000000    0.4663345938506651     C1
    0.6666669847440475    0.3333329859851446    0.3752486729114350     H1
    0.3333329854322145    0.6666669831836742    0.5696241441080934     N1
    0.3333329854322145    0.6666669831836742    0.6247513270885650     O1
    0.3333329854322145    0.6666669831836742    0.4178100202791780    Zr1
    0.6666669847440475    0.3333329859851446    0.5266949291350091    Zr2
