Y-Y-C-CN-NCO
   1.000
    3.6720466914151184    0.0000000000000000    0.0000000000000000
   -1.8360233457075592    3.1800857186659051    0.0000000000000000
    0.0000000000000000    0.0000000000000000   27.2546766693613662
   C    N    O    Y 
    3    2    1    2
Direct
    0.0000000000000000    0.0000000000000000    0.5214230544193362     C1
    0.3333329854322146    0.6666669831836743    0.6257727991165344     C2
    0.6666669847440474    0.3333329859851447    0.3744694399092283     C3
    0.3333329854322146    0.6666669831836743    0.6697814430461601     N1
    0.6666669847440474    0.3333329859851447    0.4202317906262015     N2
    0.6666669847440474    0.3333329859851447    0.3302185569538399     O1
    0.3333329854322146    0.6666669831836743    0.4713674992066273     Y1
    0.6666669847440474    0.3333329859851447    0.5713911041834904     Y2
