Ti-Ti-N-Cl-OH
   1.000
    3.1780078059414518    0.0000000000000000    0.0000000000000000
   -1.5890039029707259    2.7522354933617308    0.0000000000000000
    0.0000000000000000    0.0000000000000000   23.9996305038364746
   Cl   H    N    O    Ti
    1    1    1    1    2
Direct
    0.3333329854322146    0.6666669831836742    0.6249942265335584    Cl1
    0.6666669847440474    0.3333329859851446    0.3750057734664415     H1
    0.0000000000000000    0.0000000000000000    0.5107712237199908     N1
    0.6666669847440474    0.3333329859851446    0.4161373309605343     O1
    0.3333329854322146    0.6666669831836742    0.4672709884141922    Ti1
    0.6666669847440474    0.3333329859851446    0.5542318974540839    Ti2
