Y-Y-C-H-H
   1.000
    3.6000072042331239    0.0000000000000000    0.0000000000000000
   -1.8000036021165620    3.1176976926776030    0.0000000000000000
    0.0000000000000000    0.0000000000000000   22.8836878644547568
   C    H    Y 
    1    2    2
Direct
    0.0000000000000000    0.0000000000000000    0.5000000314985562     C1
    0.3333329854322145    0.6666669831836742    0.6067067487850284     H1
    0.6666669847440474    0.3333329859851446    0.3932932512149716     H2
    0.3333329854322145    0.6666669831836742    0.4400759044675892     Y1
    0.6666669847440474    0.3333329859851446    0.5599240950622749     Y2
