Ti-Ti-N-NO-NO
   1.000
    3.0988041641293540    0.0000000000000000    0.0000000000000000
   -1.5494020820646770    2.6836431274897548    0.0000000000000000
    0.0000000000000000    0.0000000000000000   25.3646011361055805
   N    O    Ti
    3    2    2
Direct
    0.0000000000000000    0.0000000000000000    0.5000000383536854     N1
    0.3333329854322145    0.6666669831836742    0.5940638020595174     N2
    0.6666669847440474    0.3333329859851446    0.4059361979404828     N3
    0.3333329854322145    0.6666669831836742    0.6451747870307005     O1
    0.6666669847440474    0.3333329859851446    0.3548252129692996     O2
    0.3333329854322145    0.6666669831836742    0.4536831609490032    Ti1
    0.6666669847440474    0.3333329859851446    0.5463168384785436    Ti2
