Sc-Sc-C-CN-OH
   1.000
    3.3625265339610779    0.0000000000000000    0.0000000000000000
   -1.6812632669805390    2.9120333992759311    0.0000000000000000
    0.0000000000000000    0.0000000000000000   25.3531154181180760
   C    H    N    O    Sc
    2    1    1    1    2
Direct
    0.0000000000000000    0.0000000000000000    0.4916552382599589     C1
    0.3333329854322145    0.6666669831836742    0.5977655567279408     C2
    0.6666669847440474    0.3333329859851446    0.3549859593810841     H1
    0.3333329854322145    0.6666669831836742    0.6450140406189159     N1
    0.6666669847440474    0.3333329859851446    0.3937962197959542     O1
    0.3333329854322145    0.6666669831836742    0.4416114771715861    Sc1
    0.6666669847440474    0.3333329859851446    0.5404945451187420    Sc2
