Y-Y-C-CN-SCN
   1.000
    3.7718789458449993    0.0000000000000000    0.0000000000000000
   -1.8859394729224996    3.2665429871657135    0.0000000000000000
    0.0000000000000000    0.0000000000000000   27.8992911264620815
   C    N    S    Y 
    3    2    1    2
Direct
    0.0000000000000000    0.0000000000000000    0.5352986416350660     C1
    0.3333329854322145    0.6666669831836742    0.6343773228520917     C2
    0.6666669847440475    0.3333329859851446    0.3652528948893133     C3
    0.3333329854322145    0.6666669831836742    0.6774111586131437     N1
    0.6666669847440475    0.3333329859851446    0.3225888413868562     N2
    0.6666669847440475    0.3333329859851446    0.4252926147523856     S1
    0.3333329854322145    0.6666669831836742    0.4874511273859289     Y1
    0.6666669847440475    0.3333329859851446    0.5835731181551100     Y2
