Hf-Hf-N-NO-NO
   1.000
    3.3077834524937031    0.0000000000000000    0.0000000000000000
   -1.6538917262468515    2.8646245000505766    0.0000000000000000
    0.0000000000000000    0.0000000000000000   25.4423575876064660
   Hf   N    O 
    2    3    2
Direct
    0.3333329854322145    0.6666669831836742    0.4461750480953805    Hf1
    0.6666669847440475    0.3333329859851446    0.5538249514037499    Hf2
    0.0000000000000000    0.0000000000000000    0.5000000335576784     N1
    0.3333329854322145    0.6666669831836742    0.5929490137924680     N2
    0.6666669847440475    0.3333329859851446    0.4070509862075321     N3
    0.3333329854322145    0.6666669831836742    0.6462591971278597     O1
    0.6666669847440475    0.3333329859851446    0.3537408028721402     O2
