Y-Y-C-O-O
   1.000
    3.7168353785801491    0.0000000000000000    0.0000000000000000
   -1.8584176892900739    3.2188738595401434    0.0000000000000000
    0.0000000000000000    0.0000000000000000   22.0193003780051342
   C    O    Y 
    1    2    2
Direct
    0.0000000000000000    0.0000000000000000    0.4858259931587412     C1
    0.3333329854322146    0.6666669831836742    0.5912676676598675     O1
    0.0000000000000000    0.0000000000000000    0.4087323323401325     O2
    0.3333329854322146    0.6666669831836742    0.4386040966274218     Y1
    0.6666669847440474    0.3333329859851446    0.5630482298336185     Y2
