Sc-Sc-C-NO-Br
   1.000
    3.4565520268323060    0.0000000000000000    0.0000000000000000
   -1.7282760134161530    2.9934618647384501    0.0000000000000000
    0.0000000000000000    0.0000000000000000   24.8420615065978119
   Br   C    N    O    Sc
    1    1    1    1    2
Direct
    0.6666669847440474    0.3333329859851446    0.3622887737239394    Br1
    0.0000000000000000    0.0000000000000000    0.4860855959027400     C1
    0.3333329854322145    0.6666669831836741    0.5857566441921382     N1
    0.3333329854322145    0.6666669831836741    0.6377112262760606     O1
    0.3333329854322145    0.6666669831836741    0.4373155581541742    Sc1
    0.6666669847440474    0.3333329859851446    0.5371394226111821    Sc2
