Zr-Zr-N-Cl-Cl
   1.000
    3.4525292017721445    0.0000000000000000    0.0000000000000000
   -1.7262646008860723    2.9899779960352277    0.0000000000000000
    0.0000000000000000    0.0000000000000000   23.8325630890776452
   Cl   N    Zr
    2    1    2
Direct
    0.3333329854322145    0.6666669831836742    0.6223654180055582    Cl1
    0.6666669847440474    0.3333329859851446    0.3776345819944419    Cl2
    0.0000000000000000    0.0000000000000000    0.5000000328834919     N1
    0.3333329854322145    0.6666669831836742    0.4525155527849875    Zr1
    0.6666669847440474    0.3333329859851446    0.5474844467242053    Zr2
