Ti-Ti-C-NCS-O
   1.000
    3.1338750469450507    0.0000000000000000    0.0000000000000000
   -1.5669375234725254    2.7140154029319454    0.0000000000000000
    0.0000000000000000    0.0000000000000000   25.4317083103760950
   C    N    O    S    Ti
    2    1    1    1    2
Direct
    0.0000000000000000    0.0000000000000000    0.4405745623195339     C1
    0.3333329854322145    0.6666669831836741    0.5852545444569063     C2
    0.3333329854322145    0.6666669831836741    0.5357057253531254     N1
    0.6666669847440474    0.3333329859851446    0.3538889283472952     O1
    0.3333329854322145    0.6666669831836741    0.6461110716527048     S1
    0.3333329854322145    0.6666669831836741    0.3888074496478766    Ti1
    0.6666669847440474    0.3333329859851446    0.4861386708008179    Ti2
