Sc-Sc-N-F-Cl
   1.000
    3.3421346989724023    0.0000000000000000    0.0000000000000000
   -1.6710673494862012    2.8943735521757965    0.0000000000000000
    0.0000000000000000    0.0000000000000000   23.2286628550524874
   Cl   F    N    Sc
    1    1    1    2
Direct
    0.6666669847440474    0.3333329859851446    0.3874523495459147    Cl1
    0.3333329854322146    0.6666669831836743    0.6125476504540854     F1
    0.0000000000000000    0.0000000000000000    0.5130594018548227     N1
    0.3333329854322146    0.6666669831836743    0.4602937932269803    Sc1
    0.6666669847440474    0.3333329859851446    0.5634113837020625    Sc2
