Y-Y-C-SCN-PO
   1.000
    3.7286496084665037    0.0000000000000000    0.0000000000000000
   -1.8643248042332519    3.2291052828733489    0.0000000000000000
    0.0000000000000000    0.0000000000000000   28.8588041634612829
   C    N    O    P    S    Y 
    2    1    1    1    1    2
Direct
    0.0000000000000000    0.0000000000000000    0.4815593045533892     C1
    0.3333329854322145    0.6666669831836743    0.6468864245313640     C2
    0.3333329854322145    0.6666669831836743    0.6881367658541070     N1
    0.6666669847440474    0.3333329859851445    0.3118632341458930     O1
    0.6666669847440474    0.3333329859851445    0.3637620506738833     P1
    0.3333329854322145    0.6666669831836743    0.5888574527922996     S1
    0.3333329854322145    0.6666669831836743    0.4361773466714177     Y1
    0.6666669847440474    0.3333329859851445    0.5284058196091382     Y2
