Ti-Ti-C-PO-Cl
   1.000
    3.1712714303023555    0.0000000000000000    0.0000000000000000
   -1.5856357151511777    2.7464016209375832    0.0000000000000000
    0.0000000000000000    0.0000000000000000   25.3103008354899046
   C    Cl   O    P    Ti
    1    1    1    1    2
Direct
    0.0000000000000000    0.0000000000000000    0.4666576400337034     C1
    0.6666669847440474    0.3333329859851446    0.3555864491100901    Cl1
    0.3333329854322145    0.6666669831836741    0.6444135508899100     O1
    0.3333329854322145    0.6666669831836741    0.5855191118309628     P1
    0.3333329854322145    0.6666669831836741    0.4218564452574777    Ti1
    0.6666669847440474    0.3333329859851446    0.5117166092934271    Ti2
