Y-Y-C-NCS-O
   1.000
    3.6167971991624595    0.0000000000000000    0.0000000000000000
   -1.8083985995812297    3.1322382548104919    0.0000000000000000
    0.0000000000000000    0.0000000000000000   26.0127009645005387
   C    N    O    S    Y 
    2    1    1    1    2
Direct
    0.0000000000000000    0.0000000000000000    0.4430957728516920     C1
    0.3333329854322145    0.6666669831836742    0.5940065389280655     C2
    0.3333329854322145    0.6666669831836742    0.5461402175772757     N1
    0.6666669847440474    0.3333329859851446    0.3459848330353036     O1
    0.3333329854322145    0.6666669831836742    0.6540151669646964     S1
    0.3333329854322145    0.6666669831836742    0.3726348282247494     Y1
    0.6666669847440474    0.3333329859851446    0.4915559800092499     Y2
