Sc-Sc-N-NO-PO
   1.000
    3.2780293478249218    0.0000000000000000    0.0000000000000000
   -1.6390146739124609    2.8388566895697993    0.0000000000000000
    0.0000000000000000    0.0000000000000000   26.4296091849053632
   N    O    P    Sc
    2    2    1    2
Direct
    0.0000000000000000    0.0000000000000000    0.5148610006110599     N1
    0.3333329854322145    0.6666669831836742    0.6098388090044335     N2
    0.3333329854322145    0.6666669831836742    0.6594728307545261     O1
    0.6666669847440474    0.3333329859851446    0.3405271692454739     O2
    0.6666669847440474    0.3333329859851446    0.3970397818394503     P1
    0.3333329854322145    0.6666669831836742    0.4731023857167272    Sc1
    0.6666669847440474    0.3333329859851446    0.5690690971151705    Sc2
