Hf-Hf-N-OCl-OCN
   1.000
    3.2060470252586861    0.0000000000000000    0.0000000000000000
   -1.6030235126293431    2.7765181696283774    0.0000000000000000
    0.0000000000000000    0.0000000000000000   28.9302341228763780
   C    Cl   Hf   N    O 
    1    1    2    2    2
Direct
    0.6666669847440474    0.3333329859851446    0.3521240084749307     C1
    0.3333329854322146    0.6666669831836742    0.6889067692375391    Cl1
    0.3333329854322146    0.6666669831836742    0.4476815197755445    Hf1
    0.6666669847440474    0.3333329859851446    0.5381378251480254    Hf2
    0.0000000000000000    0.0000000000000000    0.4931151982775432     N1
    0.6666669847440474    0.3333329859851446    0.3110932307624609     N2
    0.3333329854322146    0.6666669831836742    0.5704951927379610     O1
    0.6666669847440474    0.3333329859851446    0.3986019879642289     O2
