Ti-Ti-C-SCN-PO
   1.000
    3.2306086733896970    0.0000000000000000    0.0000000000000000
   -1.6153043366948485    2.7977891808421860    0.0000000000000000
    0.0000000000000000    0.0000000000000000   28.0451093497883477
   C    N    O    P    S    Ti
    2    1    1    1    1    2
Direct
    0.0000000000000000    0.0000000000000000    0.4796535688580864     C1
    0.3333329854322146    0.6666669831836742    0.6366219943176796     C2
    0.3333329854322146    0.6666669831836742    0.6790884325766439     N1
    0.6666669847440474    0.3333329859851446    0.3209115674233561     O1
    0.6666669847440474    0.3333329859851446    0.3740633792024136     P1
    0.3333329854322146    0.6666669831836742    0.5768084796095704     S1
    0.3333329854322146    0.6666669831836742    0.4404425232474182    Ti1
    0.6666669847440474    0.3333329859851446    0.5215295341885201    Ti2
