Zr-Zr-N-PO-OCN
   1.000
    3.3354877817355590    0.0000000000000000    0.0000000000000000
   -1.6677438908677795    2.8886171529844380    0.0000000000000000
    0.0000000000000000    0.0000000000000000   27.8044084774044364
   C    N    O    P    Zr
    1    2    2    1    2
Direct
    0.6666669847440475    0.3333329859851445    0.3664128167321167     C1
    0.0000000000000000    0.0000000000000000    0.5055254682344191     N1
    0.6666669847440475    0.3333329859851445    0.3236896770277976     N2
    0.3333329854322145    0.6666669831836742    0.6763103229722024     O1
    0.6666669847440475    0.3333329859851445    0.4145323683782883     O2
    0.3333329854322145    0.6666669831836742    0.6225879847475119     P1
    0.3333329854322145    0.6666669831836742    0.4647018234465451    Zr1
    0.6666669847440475    0.3333329859851445    0.5518407511878084    Zr2
