Ti-Ti-C-NCO-F
   1.000
    3.2310503999696372    0.0000000000000000    0.0000000000000000
   -1.6155251999848186    2.7981717272813524    0.0000000000000000
    0.0000000000000000    0.0000000000000000   25.2356551882993294
   C    F    N    O    Ti
    2    1    1    1    2
Direct
    0.0000000000000000    0.0000000000000000    0.4488929908641019     C1
    0.3333329854322145    0.6666669831836742    0.5956299213984111     C2
    0.6666669847440474    0.3333329859851446    0.3566382538057862     F1
    0.3333329854322145    0.6666669831836742    0.5461890403814635     N1
    0.3333329854322145    0.6666669831836742    0.6433617461942138     O1
    0.3333329854322145    0.6666669831836742    0.4053107883270649    Ti1
    0.6666669847440474    0.3333329859851446    0.4933057683239206    Ti2
