Ti-Ti-C-NCO-Br
   1.000
    3.2482319159446518    0.0000000000000000    0.0000000000000000
   -1.6241159579723259    2.8130513565727640    0.0000000000000000
    0.0000000000000000    0.0000000000000000   25.8072928907352761
   Br   C    N    O    Ti
    1    2    1    1    2
Direct
    0.6666669847440474    0.3333329859851446    0.3487386312894123    Br1
    0.0000000000000000    0.0000000000000000    0.4622849976684438     C1
    0.3333329854322145    0.6666669831836742    0.6045841674472909     C2
    0.3333329854322145    0.6666669831836742    0.5562620497931421     N1
    0.3333329854322145    0.6666669831836742    0.6512613687105877     O1
    0.3333329854322145    0.6666669831836742    0.4203466720845522    Ti1
    0.6666669847440474    0.3333329859851446    0.5048217054132942    Ti2
