Sc-Sc-C-NCO-Cl
   1.000
    3.4067278409097219    0.0000000000000000    0.0000000000000000
   -1.7033639204548610    2.9503128540027164    0.0000000000000000
    0.0000000000000000    0.0000000000000000   25.9450550811455827
   C    Cl   N    O    Sc
    2    1    1    1    2
Direct
    0.0000000000000000    0.0000000000000000    0.4595943419235227     C1
    0.3333329854322145    0.6666669831836742    0.6066720973593813     C2
    0.6666669847440473    0.3333329859851446    0.3468869105057462    Cl1
    0.3333329854322145    0.6666669831836742    0.5586392927140177     N1
    0.3333329854322145    0.6666669831836742    0.6531130894942538     O1
    0.3333329854322145    0.6666669831836742    0.4118750491942873    Sc1
    0.6666669847440473    0.3333329859851446    0.5076428374235117    Sc2
