Sc-Sc-C-NCS-NCS
   1.000
    3.4352877235764270    0.0000000000000000    0.0000000000000000
   -1.7176438617882135    2.9750464378929977    0.0000000000000000
    0.0000000000000000    0.0000000000000000   28.6810517738054322
   C    N    S    Sc
    3    2    2    2
Direct
    0.0000000000000000    0.0000000000000000    0.5000000278055227     C1
    0.3333329854322145    0.6666669831836742    0.6319356086519485     C2
    0.6666669847440473    0.3333329859851446    0.3680643913480515     C3
    0.3333329854322145    0.6666669831836742    0.5884716227652700     N1
    0.6666669847440473    0.3333329859851446    0.4115283776466637     N2
    0.3333329854322145    0.6666669831836742    0.6862039763751011     S1
    0.6666669847440473    0.3333329859851446    0.3137960236248989     S2
    0.3333329854322145    0.6666669831836742    0.4566965973132396    Sc1
    0.6666669847440473    0.3333329859851446    0.5433034026867529    Sc2
