Y-Y-N-NO-PO
   1.000
    3.5606386527256455    0.0000000000000000    0.0000000000000000
   -1.7803193263628228    3.0836035269683961    0.0000000000000000
    0.0000000000000000    0.0000000000000000   26.7976885660869257
   N    O    P    Y 
    2    2    1    2
Direct
    0.0000000000000000    0.0000000000000000    0.5153290497902236     N1
    0.3333329854322145    0.6666669831836742    0.6148244528268468     N2
    0.3333329854322145    0.6666669831836742    0.6641501382552188     O1
    0.6666669847440474    0.3333329859851446    0.3358498617447812     O2
    0.6666669847440474    0.3333329859851446    0.3916867497644781     P1
    0.3333329854322145    0.6666669831836742    0.4709593390922916     Y1
    0.6666669847440474    0.3333329859851446    0.5744995243318548     Y2
