Hf-Hf-N-F-F
   1.000
    3.3524236287858571    0.0000000000000000    0.0000000000000000
   -1.6762118143929285    2.9032840267719808    0.0000000000000000
    0.0000000000000000    0.0000000000000000   22.8276646283867777
   F    Hf   N 
    2    2    1
Direct
    0.3333329854322145    0.6666669831836742    0.6057415356975118     F1
    0.6666669847440475    0.3333329859851446    0.3942584643024882     F2
    0.3333329854322145    0.6666669831836742    0.4512821504341368    Hf1
    0.6666669847440475    0.3333329859851446    0.5487178490223910    Hf2
    0.0000000000000000    0.0000000000000000    0.5000000364119661     N1
