Zr-Zr-C-NCS-H
   1.000
    3.3785207030861604    0.0000000000000000    0.0000000000000000
   -1.6892603515430802    2.9258847560883203    0.0000000000000000
    0.0000000000000000    0.0000000000000000   25.6897729635456926
   C    H    N    S    Zr
    2    1    1    1    2
Direct
    0.0000000000000000    0.0000000000000000    0.4377720309808285     C1
    0.3333329854322145    0.6666669831836742    0.5891887663528461     C2
    0.6666669847440475    0.3333329859851446    0.3503339641331662     H1
    0.3333329854322145    0.6666669831836742    0.5404585178838870     N1
    0.3333329854322145    0.6666669831836742    0.6496660358668338     S1
    0.3333329854322145    0.6666669831836742    0.3891348491230826    Zr1
    0.6666669847440475    0.3333329859851446    0.4859918587286566    Zr2
