Zr-Zr-C-Cl-Cl
   1.000
    3.4539547900947514    0.0000000000000000    0.0000000000000000
   -1.7269773950473757    2.9912125917403047    0.0000000000000000
    0.0000000000000000    0.0000000000000000   23.9958869920902451
   C    Cl   Zr
    1    2    2
Direct
    0.0000000000000000    0.0000000000000000    0.5000000326327216     C1
    0.3333329854322145    0.6666669831836741    0.6249357232359585    Cl1
    0.6666669847440474    0.3333329859851445    0.3750642767640415    Cl2
    0.3333329854322145    0.6666669831836741    0.4499801767985708    Zr1
    0.6666669847440474    0.3333329859851445    0.5500198227143649    Zr2
