Sc-Sc-C-OCl-H
   1.000
    3.2520737250921057    0.0000000000000000    0.0000000000000000
   -1.6260368625460528    2.8163784609060927    0.0000000000000000
    0.0000000000000000    0.0000000000000000   26.4792554393139419
   C    Cl   H    O    Sc
    1    1    1    1    2
Direct
    0.0000000000000000    0.0000000000000000    0.4236625713693492     C1
    0.3333329854322145    0.6666669831836741    0.6601112889814252    Cl1
    0.6666669847440475    0.3333329859851446    0.3398887110185748     H1
    0.3333329854322145    0.6666669831836741    0.5142322651629239     O1
    0.3333329854322145    0.6666669831836741    0.3774639389515238    Sc1
    0.6666669847440475    0.3333329859851446    0.4872290054310029    Sc2
