Zr-Zr-N-Br-H
   1.000
    3.4196626851577978    0.0000000000000000    0.0000000000000000
   -1.7098313425788989    2.9615147577147702    0.0000000000000000
    0.0000000000000000    0.0000000000000000   23.2645169753613104
   Br   H    N    Zr
    1    1    1    2
Direct
    0.3333329854322145    0.6666669831836742    0.6131447728086681    Br1
    0.6666669847440474    0.3333329859851446    0.3868552271913320     H1
    0.0000000000000000    0.0000000000000000    0.4787056966633571     N1
    0.3333329854322145    0.6666669831836742    0.4293354625626351    Zr1
    0.6666669847440474    0.3333329859851446    0.5278052000454809    Zr2
