Zr-Zr-N-CN-Br
   1.000
    3.4542572296606799    0.0000000000000000    0.0000000000000000
   -1.7271286148303400    2.9914745120927577    0.0000000000000000
    0.0000000000000000    0.0000000000000000   24.9282487472806835
   Br   C    N    Zr
    1    1    2    2
Direct
    0.6666669847440475    0.3333329859851446    0.3610361919620113    Br1
    0.3333329854322145    0.6666669831836742    0.5906250761500886     C1
    0.0000000000000000    0.0000000000000000    0.4855907296000773     N1
    0.3333329854322145    0.6666669831836742    0.6389638080379887     N2
    0.3333329854322145    0.6666669831836742    0.4400169842833721    Zr1
    0.6666669847440475    0.3333329859851446    0.5316396138463146    Zr2
