Sc-Sc-N-OH-OCN
   1.000
    3.2676670222748618    0.0000000000000000    0.0000000000000000
   -1.6338335111374309    2.8298826523494354    0.0000000000000000
    0.0000000000000000    0.0000000000000000   26.4349863271202175
   C    H    N    O    Sc
    1    1    2    2    2
Direct
    0.6666669847440474    0.3333329859851446    0.3853698884905691     C1
    0.3333329854322145    0.6666669831836742    0.6595420974072264     H1
    0.0000000000000000    0.0000000000000000    0.5293818471497409     N1
    0.6666669847440474    0.3333329859851446    0.3404579025927737     N2
    0.3333329854322145    0.6666669831836742    0.6222791235569765     O1
    0.6666669847440474    0.3333329859851446    0.4359029882715473     O2
    0.3333329854322145    0.6666669831836742    0.4839137560557702    Sc1
    0.6666669847440474    0.3333329859851446    0.5758188530621868    Sc2
