Sc-Sc-N-SCN-H
   1.000
    3.3695797699654686    0.0000000000000000    0.0000000000000000
   -1.6847898849827343    2.9181416808435778    0.0000000000000000
    0.0000000000000000    0.0000000000000000   25.8430051431035537
   C    H    N    S    Sc
    1    1    2    1    2
Direct
    0.3333329854322145    0.6666669831836743    0.6056865657343042     C1
    0.6666669847440474    0.3333329859851447    0.3482567120256807     H1
    0.0000000000000000    0.0000000000000000    0.4308023402090039     N1
    0.3333329854322145    0.6666669831836743    0.6517432879743192     N2
    0.3333329854322145    0.6666669831836743    0.5409572326677481     S1
    0.3333329854322145    0.6666669831836743    0.3851622939591902    Sc1
    0.6666669847440474    0.3333329859851447    0.4773261941034469    Sc2
