Y-Y-N-SCN-Br
   1.000
    3.7134059515620121    0.0000000000000000    0.0000000000000000
   -1.8567029757810061    3.2159038886543589    0.0000000000000000
    0.0000000000000000    0.0000000000000000   27.0942490876138464
   Br   C    N    S    Y 
    1    1    2    1    2
Direct
    0.6666669847440473    0.3333329859851446    0.3321738118999709    Br1
    0.3333329854322143    0.6666669831836741    0.6239055158415374     C1
    0.0000000000000000    0.0000000000000000    0.4496801914784487     N1
    0.3333329854322143    0.6666669831836741    0.6678261881000291     N2
    0.3333329854322143    0.6666669831836741    0.5619007475145716     S1
    0.3333329854322143    0.6666669831836741    0.4037636183447019     Y1
    0.6666669847440473    0.3333329859851446    0.4988454124304863     Y2
