Hf-Hf-C-NCS-Br
   1.000
    3.4167890506060270    0.0000000000000000    0.0000000000000000
   -1.7083945253030135    2.9590261171849219    0.0000000000000000
    0.0000000000000000    0.0000000000000000   26.4842180561262417
   Br   C    Hf   N    S 
    1    2    2    1    1
Direct
    0.6666669847440474    0.3333329859851446    0.3398250226201468    Br1
    0.0000000000000000    0.0000000000000000    0.4578735394126117     C1
    0.3333329854322145    0.6666669831836741    0.6015320153664137     C2
    0.3333329854322145    0.6666669831836741    0.4138064734429732    Hf1
    0.6666669847440474    0.3333329859851446    0.5031303625364490    Hf2
    0.3333329854322145    0.6666669831836741    0.5540265360211124     N1
    0.3333329854322145    0.6666669831836741    0.6601749773798532     S1
