Hf-Hf-C-OCl-Cl
   1.000
    3.3016599596638989    0.0000000000000000    0.0000000000000000
   -1.6508299798319497    2.8593213997255669    0.0000000000000000
    0.0000000000000000    0.0000000000000000   26.7117759846429870
   C    Cl   Hf   O 
    1    2    2    1
Direct
    0.0000000000000000    0.0000000000000000    0.4492888467121770     C1
    0.3333329854322145    0.6666669831836742    0.6630699506774002    Cl1
    0.6666669847440474    0.3333329859851446    0.3369300493225998    Cl2
    0.3333329854322145    0.6666669831836742    0.4041611397196734    Hf1
    0.6666669847440474    0.3333329859851446    0.5026122508872157    Hf2
    0.3333329854322145    0.6666669831836742    0.5353413919460621     O1
