Ti-Ti-C-Cl-Br
   1.000
    3.2876074512006439    0.0000000000000000    0.0000000000000000
   -1.6438037256003220    2.8471515703919015    0.0000000000000000
    0.0000000000000000    0.0000000000000000   23.6550722295525269
   Br   C    Cl   Ti
    1    1    1    2
Direct
    0.6666669847440474    0.3333329859851446    0.3804680836592926    Br1
    0.0000000000000000    0.0000000000000000    0.5034835773454434     C1
    0.3333329854322145    0.6666669831836742    0.6195319163407074    Cl1
    0.3333329854322145    0.6666669831836742    0.4581930780836732    Ti1
    0.6666669847440474    0.3333329859851446    0.5491560342521289    Ti2
