Hf-Hf-C-NO-OCl
   1.000
    3.2746128468112103    0.0000000000000000    0.0000000000000000
   -1.6373064234056054    2.8358979128984960    0.0000000000000000
    0.0000000000000000    0.0000000000000000   27.5460366839788335
   C    Cl   Hf   N    O 
    1    1    2    1    2
Direct
    0.0000000000000000    0.0000000000000000    0.5345322027599924     C1
    0.6666669847440474    0.3333329859851446    0.3267257683292975    Cl1
    0.3333329854322145    0.6666669831836742    0.4831766913256046    Hf1
    0.6666669847440474    0.3333329859851446    0.5826497096713781    Hf2
    0.3333329854322145    0.6666669831836742    0.6253785217297554     N1
    0.3333329854322145    0.6666669831836742    0.6732742316707025     O1
    0.6666669847440474    0.3333329859851446    0.4516284314012654     O2
