Sc-Sc-N-O-F
   1.000
    3.3058396191580184    0.0000000000000000    0.0000000000000000
   -1.6529198095790092    2.8629410910204030    0.0000000000000000
    0.0000000000000000    0.0000000000000000   22.4785530591066660
   F    N    O    Sc
    1    1    1    2
Direct
    0.6666669847440474    0.3333329859851446    0.4003816427300626     F1
    0.0000000000000000    0.0000000000000000    0.4975871214251361     N1
    0.3333329854322145    0.6666669831836742    0.5996183572699374     O1
    0.3333329854322145    0.6666669831836742    0.4519994098782972    Sc1
    0.6666669847440474    0.3333329859851446    0.5687575362255063    Sc2
