Y-Y-N-CN-NO
   1.000
    3.6386451829294750    0.0000000000000000    0.0000000000000000
   -1.8193225914647375    3.1511591637832033    0.0000000000000000
    0.0000000000000000    0.0000000000000000   25.7748754321586446
   C    N    O    Y 
    1    3    1    2
Direct
    0.3333329854322145    0.6666669831836742    0.6043197718176564     C1
    0.0000000000000000    0.0000000000000000    0.5017568925996589     N1
    0.3333329854322145    0.6666669831836742    0.6508227547524466     N2
    0.6666669847440474    0.3333329859851446    0.4012486113510911     N3
    0.6666669847440474    0.3333329859851446    0.3491772452475535     O1
    0.3333329854322145    0.6666669831836742    0.4362792420350732     Y1
    0.6666669847440474    0.3333329859851446    0.5452981016585399     Y2
