Ti-Ti-N-SCN-H
   1.000
    3.2264708100639732    0.0000000000000000    0.0000000000000000
   -1.6132354050319866    2.7942056860601623    0.0000000000000000
    0.0000000000000000    0.0000000000000000   25.4758220726813214
   C    H    N    S    Ti
    1    1    2    1    2
Direct
    0.3333329854322145    0.6666669831836742    0.5999637512674327     C1
    0.6666669847440474    0.3333329859851446    0.3532761366570792     H1
    0.0000000000000000    0.0000000000000000    0.4300562245715281     N1
    0.3333329854322145    0.6666669831836742    0.6467238633429209     N2
    0.3333329854322145    0.6666669831836742    0.5342378415802689     S1
    0.3333329854322145    0.6666669831836742    0.3907637218655431    Ti1
    0.6666669847440474    0.3333329859851446    0.4719031018735130    Ti2
