Hf-Hf-C-O-OH
   1.000
    3.2682213949286170    0.0000000000000000    0.0000000000000000
   -1.6341106974643085    2.8303627531976185    0.0000000000000000
    0.0000000000000000    0.0000000000000000   23.8830497558659935
   C    H    Hf   O 
    1    1    2    2
Direct
    0.0000000000000000    0.0000000000000000    0.5244057574650519     C1
    0.6666669847440474    0.3333329859851446    0.3768362956991906     H1
    0.3333329854322145    0.6666669831836742    0.4733379393361080    Hf1
    0.6666669847440474    0.3333329859851446    0.5830246883463159    Hf2
    0.3333329854322145    0.6666669831836742    0.6231637043008094     O1
    0.6666669847440474    0.3333329859851446    0.4183148978055981     O2
