Ti-Ti-C-O-F
   1.000
    3.1647653680862518    0.0000000000000000    0.0000000000000000
   -1.5823826840431259    2.7407672057773600    0.0000000000000000
    0.0000000000000000    0.0000000000000000   22.4861110491973015
   C    F    O    Ti
    1    1    1    2
Direct
    0.0000000000000000    0.0000000000000000    0.5017515503853945     C1
    0.6666669847440473    0.3333329859851446    0.4002470671922292     F1
    0.3333329854322145    0.6666669831836742    0.5997529328077709     O1
    0.3333329854322145    0.6666669831836742    0.4533359435444814    Ti1
    0.6666669847440473    0.3333329859851446    0.5611395208119929    Ti2
