Ti-Ti-C-NCS-SCN
   1.000
    3.3047588479088219    0.0000000000000000    0.0000000000000000
   -1.6523794239544110    2.8620051156739601    0.0000000000000000
    0.0000000000000000    0.0000000000000000   28.6860645082754466
   C    N    S    Ti
    3    2    2    2
Direct
    0.0000000000000000    0.0000000000000000    0.5061968491734997     C1
    0.3333329854322145    0.6666669831836742    0.6321174764018619     C2
    0.6666669847440474    0.3333329859851446    0.3552577626865736     C3
    0.3333329854322145    0.6666669831836742    0.5885257790141977     N1
    0.6666669847440474    0.3333329859851446    0.3137411894686234     N2
    0.3333329854322145    0.6666669831836742    0.6862588105313766     S1
    0.6666669847440474    0.3333329859851446    0.4137216746371749     S2
    0.3333329854322145    0.6666669831836742    0.4679984659049014    Ti1
    0.6666669847440474    0.3333329859851446    0.5437682391900933    Ti2
