Y-Y-N-Cl-H
   1.000
    3.5576971273306022    0.0000000000000000    0.0000000000000000
   -1.7788485636653011    3.0810560912435982    0.0000000000000000
    0.0000000000000000    0.0000000000000000   23.4655814225241066
   Cl   H    N    Y 
    1    1    1    2
Direct
    0.3333329854322145    0.6666669831836741    0.6164595354385256    Cl1
    0.6666669847440474    0.3333329859851445    0.3835404645614745     H1
    0.0000000000000000    0.0000000000000000    0.4845406038616937     N1
    0.3333329854322145    0.6666669831836741    0.4264731239374333     Y1
    0.6666669847440474    0.3333329859851445    0.5393319718970211     Y2
