Hf-Hf-C-Br-OCN
   1.000
    3.4100538748522626    0.0000000000000000    0.0000000000000000
   -1.7050269374261313    2.9531932838773698    0.0000000000000000
    0.0000000000000000    0.0000000000000000   26.1714751685375546
   Br   C    Hf   N    O 
    1    2    2    1    1
Direct
    0.3333329854322145    0.6666669831836742    0.6561141493919498    Br1
    0.0000000000000000    0.0000000000000000    0.5358081455541376     C1
    0.6666669847440474    0.3333329859851446    0.3892709053996865     C2
    0.3333329854322145    0.6666669831836742    0.4924680799763141    Hf1
    0.6666669847440474    0.3333329859851446    0.5812337319095287    Hf2
    0.6666669847440474    0.3333329859851446    0.3438858506080502     N1
    0.6666669847440474    0.3333329859851446    0.4404257821948077     O1
