Y-Y-C-NO-NCO
   1.000
    3.6584538559245217    0.0000000000000000    0.0000000000000000
   -1.8292269279622608    3.1683139778177019    0.0000000000000000
    0.0000000000000000    0.0000000000000000   27.1804547220605350
   C    N    O    Y 
    2    2    2    2
Direct
    0.0000000000000000    0.0000000000000000    0.5227296276190879     C1
    0.6666669847440474    0.3333329859851446    0.3755035887750383     C2
    0.3333329854322145    0.6666669831836742    0.6212602732337729     N1
    0.6666669847440474    0.3333329859851446    0.4213651839891054     N2
    0.3333329854322145    0.6666669831836742    0.6688797118358984     O1
    0.6666669847440474    0.3333329859851446    0.3311202881641016     O2
    0.3333329854322145    0.6666669831836742    0.4730363436054354     Y1
    0.6666669847440474    0.3333329859851446    0.5742055528771903     Y2
