Sc-Sc-C-O-OCN
   1.000
    3.3037847025986391    0.0000000000000000    0.0000000000000000
   -1.6518923512993196    2.8611614810744945    0.0000000000000000
    0.0000000000000000    0.0000000000000000   25.4056790442356615
   C    N    O    Sc
    2    1    2    2
Direct
    0.0000000000000000    0.0000000000000000    0.5513213307354783     C1
    0.6666669847440474    0.3333329859851446    0.4011025155380082     C2
    0.6666669847440474    0.3333329859851446    0.3542515035449141     N1
    0.3333329854322146    0.6666669831836742    0.6457484964550859     O1
    0.6666669847440474    0.3333329859851446    0.4534575316283574     O2
    0.3333329854322146    0.6666669831836742    0.5042632103780236    Sc1
    0.6666669847440474    0.3333329859851446    0.6181675426622992    Sc2
