Sc-Sc-C-NO-NCO
   1.000
    3.3718865191807033    0.0000000000000000    0.0000000000000000
   -1.6859432595903516    2.9201393842755317    0.0000000000000000
    0.0000000000000000    0.0000000000000000   26.8443089211216979
   C    N    O    Sc
    2    2    2    2
Direct
    0.0000000000000000    0.0000000000000000    0.5226130666555859     C1
    0.6666669847440475    0.3333329859851446    0.3801388183870988     C2
    0.3333329854322145    0.6666669831836742    0.6167645855982640     N1
    0.6666669847440475    0.3333329859851446    0.4265581243987231     N2
    0.3333329854322145    0.6666669831836742    0.6647334067550310     O1
    0.6666669847440475    0.3333329859851446    0.3352665932449690     O2
    0.3333329854322145    0.6666669831836742    0.4762080707744635    Sc1
    0.6666669847440475    0.3333329859851446    0.5700547073411195    Sc2
