Ti-Ti-C-Cl-OCN
   1.000
    3.2065131982641404    0.0000000000000000    0.0000000000000000
   -1.6032565991320702    2.7769218872639261    0.0000000000000000
    0.0000000000000000    0.0000000000000000   25.6909945201189842
   C    Cl   N    O    Ti
    2    1    1    1    2
Direct
    0.0000000000000000    0.0000000000000000    0.5410989337049729     C1
    0.6666669847440474    0.3333329859851446    0.3965670507724555     C2
    0.3333329854322145    0.6666669831836742    0.6496826935620584    Cl1
    0.6666669847440474    0.3333329859851446    0.3503173064379416     N1
    0.6666669847440474    0.3333329859851446    0.4485195451827226     O1
    0.3333329854322145    0.6666669831836742    0.4986230266816373    Ti1
    0.6666669847440474    0.3333329859851446    0.5841253098509952    Ti2
