Y-Y-C-CN-F
   1.000
    3.6477406948700657    0.0000000000000000    0.0000000000000000
   -1.8238703474350328    3.1590361081874487    0.0000000000000000
    0.0000000000000000    0.0000000000000000   24.5718301830347663
   C    F    N    Y 
    2    1    1    2
Direct
    0.0000000000000000    0.0000000000000000    0.4684506798108456     C1
    0.3333329854322145    0.6666669831836742    0.5849317132715011     C2
    0.6666669847440475    0.3333329859851446    0.3662730831590196     F1
    0.3333329854322145    0.6666669831836742    0.6337269168409805     N1
    0.3333329854322145    0.6666669831836742    0.4124982613021253     Y1
    0.6666669847440475    0.3333329859851446    0.5237297191873471     Y2
