Y-Y-N-NO-NCO
   1.000
    3.6035833984539498    0.0000000000000000    0.0000000000000000
   -1.8017916992269749    3.1207947677156738    0.0000000000000000
    0.0000000000000000    0.0000000000000000   27.0002494591485629
   C    N    O    Y 
    1    3    2    2
Direct
    0.6666669847440474    0.3333329859851447    0.3779688095087073     C1
    0.0000000000000000    0.0000000000000000    0.5193693216794109     N1
    0.3333329854322145    0.6666669831836742    0.6171101137543726     N2
    0.6666669847440474    0.3333329859851447    0.4241187617229191     N3
    0.3333329854322145    0.6666669831836742    0.6666697463807874     O1
    0.6666669847440474    0.3333329859851447    0.3333302536192126     O2
    0.3333329854322145    0.6666669831836742    0.4774603999861431     Y1
    0.6666669847440474    0.3333329859851447    0.5819792072166460     Y2
