Zr-Zr-N-OCl-Cl
   1.000
    3.2885523691830842    0.0000000000000000    0.0000000000000000
   -1.6442761845915423    2.8479698933874946    0.0000000000000000
    0.0000000000000000    0.0000000000000000   26.8663401754353472
   Cl   N    O    Zr
    2    1    1    2
Direct
    0.3333329854322145    0.6666669831836742    0.6650083360357004    Cl1
    0.6666669847440475    0.3333329859851446    0.3349916639642996    Cl2
    0.0000000000000000    0.0000000000000000    0.4534232140860984     N1
    0.3333329854322145    0.6666669831836742    0.5368043107981895     O1
    0.3333329854322145    0.6666669831836742    0.4032534809598659    Zr1
    0.6666669847440475    0.3333329859851446    0.5024423563085123    Zr2
