Zr-Zr-N-NO-NO
   1.000
    3.3293421484800674    0.0000000000000000    0.0000000000000000
   -1.6646710742400337    2.8832948784735692    0.0000000000000000
    0.0000000000000000    0.0000000000000000   25.6668009032862230
   N    O    Zr
    3    2    2
Direct
    0.0000000000000000    0.0000000000000000    0.5000000328348322     N1
    0.3333329854322145    0.6666669831836742    0.5981686689698595     N2
    0.6666669847440474    0.3333329859851446    0.4018313310301402     N3
    0.3333329854322145    0.6666669831836742    0.6493524832365185     O1
    0.6666669847440474    0.3333329859851446    0.3506475167634816     O2
    0.3333329854322145    0.6666669831836742    0.4497072743621230    Zr1
    0.6666669847440474    0.3333329859851446    0.5502927251477959    Zr2
