Y-Y-N-NO-NO
   1.000
    3.5783303810697920    0.0000000000000000    0.0000000000000000
   -1.7891651905348960    3.0989250131402519    0.0000000000000000
    0.0000000000000000    0.0000000000000000   25.8293941683975206
   N    O    Y 
    3    2    2
Direct
    0.0000000000000000    0.0000000000000000    0.5000000282454377     N1
    0.3333329854322145    0.6666669831836742    0.6008734339383172     N2
    0.6666669847440474    0.3333329859851446    0.3991265660616826     N3
    0.3333329854322145    0.6666669831836742    0.6515597717343453     O1
    0.6666669847440474    0.3333329859851446    0.3484402282656546     O2
    0.3333329854322145    0.6666669831836742    0.4456832659697787     Y1
    0.6666669847440474    0.3333329859851446    0.5543167336086401     Y2
