Ti-Ti-C-CN-PO
   1.000
    3.1452583787968798    0.0000000000000000    0.0000000000000000
   -1.5726291893984399    2.7238736575042610    0.0000000000000000
    0.0000000000000000    0.0000000000000000   26.2526543642208559
   C    N    O    P    Ti
    2    1    1    1    2
Direct
    0.0000000000000000    0.0000000000000000    0.5141747099643270     C1
    0.3333329854322145    0.6666669831836742    0.6113013956063634     C2
    0.3333329854322145    0.6666669831836742    0.6571775228844710     N1
    0.6666669847440474    0.3333329859851446    0.3428224771155292     O1
    0.6666669847440474    0.3333329859851446    0.3996015365583525     P1
    0.3333329854322145    0.6666669831836742    0.4707552204217145    Ti1
    0.6666669847440474    0.3333329859851446    0.5583509251534655    Ti2
