Y-Y-C-Cl-OH
   1.000
    3.6600709535724603    0.0000000000000000    0.0000000000000000
   -1.8300354767862301    3.1697144254732246    0.0000000000000000
    0.0000000000000000    0.0000000000000000   24.7715833361516680
   C    Cl   H    O    Y 
    1    1    1    1    2
Direct
    0.0000000000000000    0.0000000000000000    0.5101399768194639     C1
    0.3333329854322145    0.6666669831836741    0.6366804706074078    Cl1
    0.6666669847440475    0.3333329859851446    0.3633195293925920     H1
    0.6666669847440475    0.3333329859851446    0.4031278989701859     O1
    0.3333329854322145    0.6666669831836741    0.4544818065254177     Y1
    0.6666669847440475    0.3333329859851446    0.5645695086032678     Y2
