Sc-Sc-C-NCO-OH
   1.000
    3.3406237915370096    0.0000000000000000    0.0000000000000000
   -1.6703118957685048    2.8930650679254657    0.0000000000000000
    0.0000000000000000    0.0000000000000000   26.5203898126708957
   C    H    N    O    Sc
    2    1    1    2    2
Direct
    0.0000000000000000    0.0000000000000000    0.4703443370313490     C1
    0.3333329854322145    0.6666669831836742    0.6151886799949347     C2
    0.6666669847440474    0.3333329859851446    0.3393615276235488     H1
    0.3333329854322145    0.6666669831836742    0.5682761928018658     N1
    0.3333329854322145    0.6666669831836742    0.6606384723764511     O1
    0.6666669847440474    0.3333329859851446    0.3764478723104558     O2
    0.3333329854322145    0.6666669831836742    0.4225045992210929    Sc1
    0.6666669847440474    0.3333329859851446    0.5173989013211293    Sc2
