 La-La-C-Cl-Br                          
   1.0000000000000000     
     4.0359721860104161   -0.0000000000000000    0.0000000000000002
    -2.0179860930052080    3.4952544420355522    0.0000000000000003
     0.0000000000000033    0.0000000000000065   21.3989418764524686
   C    Br   Cl   La
     1     1     1     2
Direct
 -0.0000000000000000 -0.0000000000000000  0.5039837154435138
  0.6666669847440474  0.3333329859851446  0.3421352812128499
  0.3333329854322145  0.6666669831836742  0.6551938961045408
  0.3333329854322145  0.6666669831836742  0.4357159031002076
  0.6666669847440474  0.3333329859851446  0.5725110062087405

  0.00000000E+00  0.00000000E+00  0.00000000E+00
  0.00000000E+00  0.00000000E+00  0.00000000E+00
  0.00000000E+00  0.00000000E+00  0.00000000E+00
  0.00000000E+00  0.00000000E+00  0.00000000E+00
  0.00000000E+00  0.00000000E+00  0.00000000E+00
