Hf-Hf-N-O-O
   1.000
    3.2295034248649865    0.0000000000000000    0.0000000000000000
   -1.6147517124324933    2.7968320075035606    0.0000000000000000
    0.0000000000000000    0.0000000000000000   22.6158226002121161
   Hf   N    O 
    2    1    2
Direct
    0.3333329854322145    0.6666669831836742    0.4410381182827170    Hf1
    0.6666669847440474    0.3333329859851446    0.5589618811261674    Hf2
    0.0000000000000000    0.0000000000000000    0.5000000396040420     N1
    0.3333329854322145    0.6666669831836742    0.6020485233238614     O1
    0.6666669847440474    0.3333329859851446    0.3979514766761386     O2
