Hf-Hf-C-SCN-Br
   1.000
    3.5051249863525009    0.0000000000000000    0.0000000000000000
   -1.7525624931762505    3.0355272816127168    0.0000000000000000
    0.0000000000000000    0.0000000000000000   26.7450345771855744
   Br   C    Hf   N    S 
    1    2    2    1    1
Direct
    0.6666669847440475    0.3333329859851447    0.3365110624189399    Br1
    0.0000000000000000    0.0000000000000000    0.4499220663856723     C1
    0.3333329854322145    0.6666669831836742    0.6189928091229004     C2
    0.3333329854322145    0.6666669831836742    0.4088924565199764    Hf1
    0.6666669847440475    0.3333329859851447    0.4946554690626443    Hf2
    0.3333329854322145    0.6666669831836742    0.6634889375810602     N1
    0.3333329854322145    0.6666669831836742    0.5558449097833058     S1
