Sc-Sc-N-PO-H
   1.000
    3.2318331540295659    0.0000000000000000    0.0000000000000000
   -1.6159165770147830    2.7988496121658319    0.0000000000000000
    0.0000000000000000    0.0000000000000000   24.9182022225400459
   H    N    O    P    Sc
    1    1    1    1    2
Direct
    0.6666669847440474    0.3333329859851446    0.3611817545913865     H1
    0.0000000000000000    0.0000000000000000    0.4501956759858763     N1
    0.3333329854322145    0.6666669831836742    0.6388182454086135     O1
    0.3333329854322145    0.6666669831836742    0.5788901316373585     P1
    0.3333329854322145    0.6666669831836742    0.4013936953977922    Sc1
    0.6666669847440474    0.3333329859851446    0.4986920477873374    Sc2
