Y-Y-C-PO-F
   1.000
    3.6038450114973433    0.0000000000000000    0.0000000000000000
   -1.8019225057486716    3.1210213312874564    0.0000000000000000
    0.0000000000000000    0.0000000000000000   25.5067873910897163
   C    F    O    P    Y 
    1    1    1    1    2
Direct
    0.0000000000000000    0.0000000000000000    0.4521801349666907     C1
    0.6666669847440474    0.3333329859851445    0.3528472583397143     F1
    0.3333329854322145    0.6666669831836741    0.6471527416602858     O1
    0.3333329854322145    0.6666669831836741    0.5884436514575282     P1
    0.3333329854322145    0.6666669831836741    0.3979712096181865     Y1
    0.6666669847440474    0.3333329859851445    0.5047048738058598     Y2
