Y-Y-C-CN-CN
   1.000
    3.7061282457806293    0.0000000000000000    0.0000000000000000
   -1.8530641228903146    3.2096012105557041    0.0000000000000000
    0.0000000000000000    0.0000000000000000   26.0338599083267219
   C    N    Y 
    3    2    2
Direct
    0.0000000000000000    0.0000000000000000    0.5000000263192145     C1
    0.3333329854322145    0.6666669831836742    0.6082081241277980     C2
    0.6666669847440474    0.3333329859851446    0.3917918762621166     C3
    0.3333329854322145    0.6666669831836742    0.6542963651301887     N1
    0.6666669847440474    0.3333329859851446    0.3457036348698114     N2
    0.3333329854322145    0.6666669831836742    0.4478521145518407     Y1
    0.6666669847440474    0.3333329859851446    0.5521478854481527     Y2
