Y-Y-C-CN-OCN
   1.000
    3.6826531107384755    0.0000000000000000    0.0000000000000000
   -1.8413265553692377    3.1892711472346327    0.0000000000000000
    0.0000000000000000    0.0000000000000000   27.1666713773560851
   C    N    O    Y 
    3    2    1    2
Direct
    0.0000000000000000    0.0000000000000000    0.5201990368236609     C1
    0.3333329854322145    0.6666669831836742    0.6245478937621013     C2
    0.6666669847440475    0.3333329859851446    0.3750807997021275     C3
    0.3333329854322145    0.6666669831836742    0.6687117138869776     N1
    0.6666669847440475    0.3333329859851446    0.3312882861130224     N2
    0.6666669847440475    0.3333329859851446    0.4242000306785105     O1
    0.3333329854322145    0.6666669831836742    0.4701813881403419     Y1
    0.6666669847440475    0.3333329859851446    0.5703978112160566     Y2
