Ti-Ti-N-O-OH
   1.000
    3.0687436403730914    0.0000000000000000    0.0000000000000000
   -1.5343718201865457    2.6576099502723767    0.0000000000000000
    0.0000000000000000    0.0000000000000000   23.5544815973604642
   H    N    O    Ti
    1    1    2    2
Direct
    0.6666669847440473    0.3333329859851446    0.3820928922930975     H1
    0.0000000000000000    0.0000000000000000    0.5249236554776942     N1
    0.3333329854322145    0.6666669831836742    0.6179071077069025     O1
    0.6666669847440473    0.3333329859851446    0.4240920853299902     O2
    0.3333329854322145    0.6666669831836742    0.4772749434311521    Ti1
    0.6666669847440473    0.3333329859851446    0.5786414078133750    Ti2
