Ti-Ti-C-CN-Cl
   1.000
    3.2024150079419145    0.0000000000000000    0.0000000000000000
   -1.6012075039709572    2.7733727503350303    0.0000000000000000
    0.0000000000000000    0.0000000000000000   24.5096956638282215
   C    Cl   N    Ti
    2    1    1    2
Direct
    0.0000000000000000    0.0000000000000000    0.4807217443731843     C1
    0.3333329854322145    0.6666669831836742    0.5836976047852880     C2
    0.6666669847440475    0.3333329859851446    0.3672016218986486    Cl1
    0.3333329854322145    0.6666669831836742    0.6327983781013513     N1
    0.3333329854322145    0.6666669831836742    0.4358473746832082    Ti1
    0.6666669847440475    0.3333329859851446    0.5268703709036520    Ti2
