 La-La-C-F-Br                           
   1.0000000000000000     
     3.9497159183680610   -0.0000000000000001    0.0000000000000002
    -1.9748579591840305    3.4205543230364781    0.0000000000000004
     0.0000000000000034    0.0000000000000059   22.3437934366453277
   C    Br   F    La
     1     1     1     2
Direct
 -0.0000000000000000 -0.0000000000000000  0.5149925819371219
  0.6666669847440474  0.3333329859851446  0.3576943736025677
  0.3333329854322145  0.6666669831836742  0.6304887843179877
  0.3333329854322145  0.6666669831836742  0.4497129808454883
  0.6666669847440474  0.3333329859851446  0.5821671651950867

  0.00000000E+00  0.00000000E+00  0.00000000E+00
  0.00000000E+00  0.00000000E+00  0.00000000E+00
  0.00000000E+00  0.00000000E+00  0.00000000E+00
  0.00000000E+00  0.00000000E+00  0.00000000E+00
  0.00000000E+00  0.00000000E+00  0.00000000E+00
