 Y-Y-C-O-O                              
   1.0000000000000000     
     3.7168353785801491    0.0000000000000003    0.0000000000000001
    -1.8584176892900739    3.2188738595401434   -0.0000000000000000
     0.0000000000000021    0.0000000000000031   25.2314364355509149
   C    O    Y 
     1     2     2
Direct
  0.0000000000000000  0.0000000000000000  0.4898159641712759
  0.3333329854322145  0.6666669831836742  0.5818341855329773
  0.0000000000000000  0.0000000000000000  0.4225368586339850
  0.3333329854322145  0.6666669831836742  0.4486057410911062
  0.6666669847440474  0.3333329859851446  0.5572072769706435

  0.00000000E+00  0.00000000E+00  0.00000000E+00
  0.00000000E+00  0.00000000E+00  0.00000000E+00
  0.00000000E+00  0.00000000E+00  0.00000000E+00
  0.00000000E+00  0.00000000E+00  0.00000000E+00
  0.00000000E+00  0.00000000E+00  0.00000000E+00
