 Y-Y-C-F-F                              
   1.0000000000000000     
     3.5754644273196976   -0.0000000000000000   -0.0000000000000000
    -1.7877322136598484    3.0964430243912107    0.0000000000000000
     0.0000000000000015    0.0000000000000028   27.2661428224093356
   C    F    Y 
     1     2     2
Direct
 -0.0000000000000000 -0.0000000000000000  0.5000000267999951
  0.3333329854322145  0.6666669831836742  0.5933086084441801
  0.6666669847440474  0.3333329859851446  0.4066913915558199
  0.3333329854322145  0.6666669831836742  0.4496938046364322
  0.6666669847440474  0.3333329859851446  0.5503061949635607

  0.00000000E+00  0.00000000E+00  0.00000000E+00
  0.00000000E+00  0.00000000E+00  0.00000000E+00
  0.00000000E+00  0.00000000E+00  0.00000000E+00
  0.00000000E+00  0.00000000E+00  0.00000000E+00
  0.00000000E+00  0.00000000E+00  0.00000000E+00
