Hf-Hf-C-NO-NCO
   1.000
    3.3575639808491209    0.0000000000000000    0.0000000000000000
   -1.6787819904245604    2.9077357022376020    0.0000000000000000
    0.0000000000000000    0.0000000000000000   26.7500892967062214
   C    Hf   N    O 
    2    2    2    2
Direct
    0.0000000000000000    0.0000000000000000    0.5234536738805122     C1
    0.6666669847440474    0.3333329859851447    0.3814709738457330     C2
    0.3333329854322146    0.6666669831836743    0.4816956978384396    Hf1
    0.6666669847440474    0.3333329859851447    0.5773026996221473    Hf2
    0.3333329854322146    0.6666669831836743    0.6133938856144843     N1
    0.6666669847440474    0.3333329859851447    0.4282086410358132     N2
    0.3333329854322146    0.6666669831836743    0.6635525249963115     O1
    0.6666669847440474    0.3333329859851447    0.3364474750036885     O2
