Hf-Hf-C-O-Cl
   1.000
    3.3103782152519696    0.0000000000000000    0.0000000000000000
   -1.6551891076259848    2.8668716305382702    0.0000000000000000
    0.0000000000000000    0.0000000000000000   23.3361334165757945
   C    Cl   Hf   O 
    1    1    2    1
Direct
    0.0000000000000000    0.0000000000000000    0.5144677623520117     C1
    0.6666669847440473    0.3333329859851446    0.3856680041779006    Cl1
    0.3333329854322145    0.6666669831836742    0.4626635327038218    Hf1
    0.6666669847440473    0.3333329859851446    0.5741084723214387    Hf2
    0.3333329854322145    0.6666669831836742    0.6143319958220994     O1
