Zr-Zr-C-Cl-OH
   1.000
    3.3948440116106582    0.0000000000000000    0.0000000000000000
   -1.6974220058053291    2.9400211559340135    0.0000000000000000
    0.0000000000000000    0.0000000000000000   24.5936636844332668
   C    Cl   H    O    Zr
    1    1    1    1    2
Direct
    0.0000000000000000    0.0000000000000000    0.5100680425843717     C1
    0.3333329854322145    0.6666669831836741    0.6340520828665063    Cl1
    0.6666669847440472    0.3333329859851445    0.3659479171334937     H1
    0.6666669847440472    0.3333329859851445    0.4060808457638209     O1
    0.3333329854322145    0.6666669831836741    0.4607285751841234    Zr1
    0.6666669847440472    0.3333329859851445    0.5600617299988990    Zr2
