Sc-Sc-N-F-H
   1.000
    3.2811901464672411    0.0000000000000000    0.0000000000000000
   -1.6405950732336205    2.8415940214846365    0.0000000000000000
    0.0000000000000000    0.0000000000000000   22.5382680795786783
   F    H    N    Sc
    1    1    1    2
Direct
    0.3333329854322145    0.6666669831836742    0.6006791662863102     F1
    0.6666669847440474    0.3333329859851445    0.3993208337136898     H1
    0.0000000000000000    0.0000000000000000    0.4978059886232447     N1
    0.3333329854322145    0.6666669831836742    0.4418029309829946    Sc1
    0.6666669847440474    0.3333329859851445    0.5493836930072563    Sc2
