Hf-Hf-C-CN-NCS
   1.000
    3.3578701006133884    0.0000000000000000    0.0000000000000000
   -1.6789350503066942    2.9080008097322176    0.0000000000000000
    0.0000000000000000    0.0000000000000000   27.2604043787594925
   C    Hf   N    S 
    3    2    2    1
Direct
    0.0000000000000000    0.0000000000000000    0.5272502099365801     C1
    0.3333329854322145    0.6666669831836742    0.6255963635888770     C2
    0.6666669847440475    0.3333329859851446    0.3870426924122902     C3
    0.3333329854322145    0.6666669831836742    0.4828599961259143    Hf1
    0.6666669847440475    0.3333329859851446    0.5721342845854611    Hf2
    0.3333329854322145    0.6666669831836742    0.6698508255801028     N1
    0.6666669847440475    0.3333329859851446    0.4332167851947289     N2
    0.6666669847440475    0.3333329859851446    0.3301491744198973     S1
