Sc-Sc-N-OCl-F
   1.000
    3.2980640252921165    0.0000000000000000    0.0000000000000000
   -1.6490320126460583    2.8562072292103968    0.0000000000000000
    0.0000000000000000    0.0000000000000000   26.8522330118846995
   Cl   F    N    O    Sc
    1    1    1    1    2
Direct
    0.3333329854322145    0.6666669831836742    0.6648323438867587    Cl1
    0.6666669847440475    0.3333329859851446    0.3351676561132414     F1
    0.0000000000000000    0.0000000000000000    0.4168914988014922     N1
    0.3333329854322145    0.6666669831836742    0.5022614633346978     O1
    0.3333329854322145    0.6666669831836742    0.3786307354639190    Sc1
    0.6666669847440475    0.3333329859851446    0.4767831337223709    Sc2
