Y-Y-N-CN-NCO
   1.000
    3.5653988220010611    0.0000000000000000    0.0000000000000000
   -1.7826994110005305    3.0877259544701348    0.0000000000000000
    0.0000000000000000    0.0000000000000000   27.2365591152447024
   C    N    O    Y 
    2    3    1    2
Direct
    0.3333329854322145    0.6666669831836741    0.6254862306794640     C1
    0.6666669847440474    0.3333329859851446    0.3746778180894064     C2
    0.0000000000000000    0.0000000000000000    0.5202346474350447     N1
    0.3333329854322145    0.6666669831836741    0.6695617841475957     N2
    0.6666669847440474    0.3333329859851446    0.4204414334558325     N3
    0.6666669847440474    0.3333329859851446    0.3304382158524043     O1
    0.3333329854322145    0.6666669831836741    0.4727998210538840     Y1
    0.6666669847440474    0.3333329859851446    0.5703385728608662     Y2
