Zr-Zr-C-NCO-Cl
   1.000
    3.4158769812897884    0.0000000000000000    0.0000000000000000
   -1.7079384906448942    2.9582362419751282    0.0000000000000000
    0.0000000000000000    0.0000000000000000   26.1357879571911518
   C    Cl   N    O    Zr
    2    1    1    1    2
Direct
    0.0000000000000000    0.0000000000000000    0.4600970919015266     C1
    0.3333329854322145    0.6666669831836742    0.6095279802677736     C2
    0.6666669847440474    0.3333329859851446    0.3443554108543219    Cl1
    0.3333329854322145    0.6666669831836742    0.5618079555177935     N1
    0.3333329854322145    0.6666669831836742    0.6556445891456781     O1
    0.3333329854322145    0.6666669831836742    0.4134898369731823    Zr1
    0.6666669847440474    0.3333329859851446    0.5065739111337016    Zr2
