Zr-Zr-C-CN-NCO
   1.000
    3.3890494890692411    0.0000000000000000    0.0000000000000000
   -1.6945247445346205    2.9350029521814891    0.0000000000000000
    0.0000000000000000    0.0000000000000000   27.0683158978221776
   C    N    O    Zr
    3    2    1    2
Direct
    0.0000000000000000    0.0000000000000000    0.5214942281102222     C1
    0.3333329854322145    0.6666669831836742    0.6230140084079132     C2
    0.6666669847440474    0.3333329859851446    0.3769887225259164     C3
    0.3333329854322145    0.6666669831836742    0.6675079441967016     N1
    0.6666669847440474    0.3333329859851446    0.4230861146427038     N2
    0.6666669847440474    0.3333329859851446    0.3324920558032984     O1
    0.3333329854322145    0.6666669831836742    0.4763976646903422    Zr1
    0.6666669847440474    0.3333329859851446    0.5679603175729435    Zr2
