Hf-Hf-C-SCN-H
   1.000
    3.3898944331674725    0.0000000000000000    0.0000000000000000
   -1.6949472165837363    2.9357346952451717    0.0000000000000000
    0.0000000000000000    0.0000000000000000   25.9305252715018106
   C    H    Hf   N    S 
    2    1    2    1    1
Direct
    0.0000000000000000    0.0000000000000000    0.4306940388647293     C1
    0.3333329854322145    0.6666669831836742    0.6070141442771341     C2
    0.6666669847440475    0.3333329859851446    0.3470812837675598     H1
    0.3333329854322145    0.6666669831836742    0.3847088263090617    Hf1
    0.6666669847440475    0.3333329859851446    0.4772177714785951    Hf2
    0.3333329854322145    0.6666669831836742    0.6529187162324401     N1
    0.3333329854322145    0.6666669831836742    0.5421323022170336     S1
