Zr-Zr-C-CN-CN
   1.000
    3.4010800606255547    0.0000000000000000    0.0000000000000000
   -1.7005400303127773    2.9454217327999164    0.0000000000000000
    0.0000000000000000    0.0000000000000000   25.8673349143071114
   C    N    Zr
    3    2    2
Direct
    0.0000000000000000    0.0000000000000000    0.5000000314533549     C1
    0.3333329854322145    0.6666669831836742    0.6055178112092272     C2
    0.6666669847440474    0.3333329859851446    0.3944821892567484     C3
    0.3333329854322145    0.6666669831836742    0.6520708441818590     N1
    0.6666669847440474    0.3333329859851446    0.3479291558181410     N2
    0.3333329854322145    0.6666669831836742    0.4518433369839860    Zr1
    0.6666669847440474    0.3333329859851446    0.5481566630160059    Zr2
