Sc-Sc-N-CN-H
   1.000
    3.2703292721068538    0.0000000000000000    0.0000000000000000
   -1.6351646360534269    2.8321882283735018    0.0000000000000000
    0.0000000000000000    0.0000000000000000   24.0864111392295968
   C    H    N    Sc
    1    1    2    2
Direct
    0.3333329854322145    0.6666669831836741    0.5765742139769419     C1
    0.6666669847440474    0.3333329859851445    0.3736546697628056     H1
    0.0000000000000000    0.0000000000000000    0.4651615767670959     N1
    0.3333329854322145    0.6666669831836741    0.6263453302371944     N2
    0.3333329854322145    0.6666669831836741    0.4146715793750009    Sc1
    0.6666669847440474    0.3333329859851445    0.5158840715982158    Sc2
