Zr-Zr-N-Br-OH
   1.000
    3.4268308909385450    0.0000000000000000    0.0000000000000000
   -1.7134154454692725    2.9677226060229778    0.0000000000000000
    0.0000000000000000    0.0000000000000000   24.5543401021225804
   Br   H    N    O    Zr
    1    1    1    1    2
Direct
    0.3333329854322145    0.6666669831836742    0.6334660201590185    Br1
    0.6666669847440474    0.3333329859851446    0.3665339798409815     H1
    0.0000000000000000    0.0000000000000000    0.5052192328475690     N1
    0.6666669847440474    0.3333329859851446    0.4067973647292928     O1
    0.3333329854322145    0.6666669831836742    0.4595396153319433    Zr1
    0.6666669847440474    0.3333329859851446    0.5531536754529973    Zr2
