Hf-Hf-C-OCl-O
   1.000
    3.2666728547582049    0.0000000000000000    0.0000000000000000
   -1.6333364273791025    2.8290216780774817    0.0000000000000000
    0.0000000000000000    0.0000000000000000   26.2763044469383829
   C    Cl   Hf   O 
    1    1    2    2
Direct
    0.0000000000000000    0.0000000000000000    0.4300518773570913     C1
    0.3333329854322145    0.6666669831836742    0.6574860814931436    Cl1
    0.3333329854322145    0.6666669831836742    0.3776040589717134    Hf1
    0.6666669847440474    0.3333329859851446    0.4833714972173921    Hf2
    0.3333329854322145    0.6666669831836742    0.5170457291397870     O1
    0.6666669847440474    0.3333329859851446    0.3425139185068564     O2
