Zr-Zr-C-NCS-PO
   1.000
    3.3781909441956737    0.0000000000000000    0.0000000000000000
   -1.6890954720978368    2.9255991765096172    0.0000000000000000
    0.0000000000000000    0.0000000000000000   28.1969434616444126
   C    N    O    P    S    Zr
    2    1    1    1    1    2
Direct
    0.0000000000000000    0.0000000000000000    0.4876124988393116     C1
    0.3333329854322145    0.6666669831836742    0.6257624188182582     C2
    0.3333329854322145    0.6666669831836742    0.5812680625060735     N1
    0.6666669847440475    0.3333329859851446    0.3191835317981351     O1
    0.6666669847440475    0.3333329859851446    0.3721530400056387     P1
    0.3333329854322145    0.6666669831836742    0.6808164682018649     S1
    0.3333329854322145    0.6666669831836742    0.4425831463414737    Zr1
    0.6666669847440475    0.3333329859851446    0.5323055210440888    Zr2
