Ti-Ti-C-F-OCN
   1.000
    3.2315357564036540    0.0000000000000000    0.0000000000000000
   -1.6157678782018270    2.7985920582821202    0.0000000000000000
    0.0000000000000000    0.0000000000000000   25.2480527021738830
   C    F    N    O    Ti
    2    1    1    1    2
Direct
    0.0000000000000000    0.0000000000000000    0.5511991705388378     C1
    0.6666669847440475    0.3333329859851446    0.4035392758724479     C2
    0.3333329854322145    0.6666669831836742    0.6435368657470724     F1
    0.6666669847440475    0.3333329859851446    0.3564631342529276     N1
    0.6666669847440475    0.3333329859851446    0.4564390120336200     O1
    0.3333329854322145    0.6666669831836742    0.5074344752981382    Ti1
    0.6666669847440475    0.3333329859851446    0.5949791602921739    Ti2
