Y-Y-C-NCO-NCO
   1.000
    3.6395810866588509    0.0000000000000000    0.0000000000000000
   -1.8197905433294255    3.1519696801850170    0.0000000000000000
    0.0000000000000000    0.0000000000000000   28.4539137623911991
   C    N    O    Y 
    3    2    2    2
Direct
    0.0000000000000000    0.0000000000000000    0.5000000247844136     C1
    0.3333329854322145    0.6666669831836741    0.6413119971898139     C2
    0.6666669847440474    0.3333329859851446    0.3586880024402763     C3
    0.3333329854322145    0.6666669831836741    0.5975083766760557     N1
    0.6666669847440474    0.3333329859851446    0.4024916233239509     N2
    0.3333329854322145    0.6666669831836741    0.6836990483925730     O1
    0.6666669847440474    0.3333329859851446    0.3163009516074270     O2
    0.3333329854322145    0.6666669831836741    0.4519534588716715     Y1
    0.6666669847440474    0.3333329859851446    0.5480465407584121     Y2
