Hf-Hf-C-PO-Cl
   1.000
    3.3396528878397800    0.0000000000000000    0.0000000000000000
   -1.6698264439198900    2.8922242406753758    0.0000000000000000
    0.0000000000000000    0.0000000000000000   25.6872076429580716
   C    Cl   Hf   O    P 
    1    1    2    1    1
Direct
    0.0000000000000000    0.0000000000000000    0.4661974777495923     C1
    0.6666669847440474    0.3333329859851446    0.3503689511564046    Cl1
    0.3333329854322145    0.6666669831836742    0.4202126405683813    Hf1
    0.6666669847440474    0.3333329859851446    0.5154749718089304    Hf2
    0.3333329854322145    0.6666669831836742    0.6496310488435955     O1
    0.3333329854322145    0.6666669831836742    0.5914403864621114     P1
