Ti-Ti-C-O-O
   1.000
    3.0704785360398521    0.0000000000000000    0.0000000000000000
   -1.5352392680199261    2.6591124139582156    0.0000000000000000
    0.0000000000000000    0.0000000000000000   22.3940494551057405
   C    O    Ti
    1    2    2
Direct
    0.0000000000000000    0.0000000000000000    0.5000000442464708     C1
    0.3333329854322144    0.6666669831836742    0.5981075232488584     O1
    0.6666669847440474    0.3333329859851446    0.4018924767511416     O2
    0.3333329854322144    0.6666669831836742    0.4417194783703894    Ti1
    0.6666669847440474    0.3333329859851446    0.5582805209692034    Ti2
