Ti-Ti-C-CN-O
   1.000
    3.1116892078012821    0.0000000000000000    0.0000000000000000
   -1.5558446039006411    2.6948019026527259    0.0000000000000000
    0.0000000000000000    0.0000000000000000   23.9761754244735350
   C    N    O    Ti
    2    1    1    2
Direct
    0.0000000000000000    0.0000000000000000    0.4679711644844388     C1
    0.3333329854322145    0.6666669831836742    0.5743966475787345     C2
    0.3333329854322145    0.6666669831836742    0.6246273711021773     N1
    0.6666669847440475    0.3333329859851446    0.3753726288978227     O1
    0.3333329854322145    0.6666669831836742    0.4124197911170402    Ti1
    0.6666669847440475    0.3333329859851446    0.5155140999775165    Ti2
