Ti-Ti-N-CN-SCN
   1.000
    3.2715176837186188    0.0000000000000000    0.0000000000000000
   -1.6357588418593094    2.8332174230291112    0.0000000000000000
    0.0000000000000000    0.0000000000000000   27.0941095734426796
   C    N    S    Ti
    2    3    1    2
Direct
    0.3333329854322145    0.6666669831836742    0.6234242984565044     C1
    0.6666669847440474    0.3333329859851446    0.3761399354686177     C2
    0.0000000000000000    0.0000000000000000    0.5350096837258441     N1
    0.3333329854322145    0.6666669831836742    0.6678244776561437     N2
    0.6666669847440474    0.3333329859851446    0.3321755223438563     N3
    0.6666669847440474    0.3333329859851446    0.4380139743632208     S1
    0.3333329854322145    0.6666669831836742    0.4959024934334599    Ti1
    0.6666669847440474    0.3333329859851446    0.5720112646852962    Ti2
