Sc-Sc-C-O-Cl
   1.000
    3.3457683706919963    0.0000000000000000    0.0000000000000000
   -1.6728841853459981    2.8975204041860367    0.0000000000000000
    0.0000000000000000    0.0000000000000000   23.2722539005758371
   C    Cl   O    Sc
    1    1    1    2
Direct
    0.0000000000000000    0.0000000000000000    0.5112035262496472     C1
    0.6666669847440474    0.3333329859851446    0.3867266161004417    Cl1
    0.3333329854322145    0.6666669831836742    0.6132733838995583     O1
    0.3333329854322145    0.6666669831836742    0.4606556848806981    Sc1
    0.6666669847440474    0.3333329859851446    0.5840414898540458    Sc2
