Y-Y-C-CN-H
   1.000
    3.6538885449205183    0.0000000000000000    0.0000000000000000
   -1.8269442724602591    3.1643603025096323    0.0000000000000000
    0.0000000000000000    0.0000000000000000   24.4581588770057152
   C    H    N    Y 
    2    1    1    2
Direct
    0.0000000000000000    0.0000000000000000    0.4659981720736383     C1
    0.3333329854322145    0.6666669831836741    0.5829944300937312     C2
    0.6666669847440473    0.3333329859851445    0.3679753674534075     H1
    0.3333329854322145    0.6666669831836741    0.6320246325465925     N1
    0.3333329854322145    0.6666669831836741    0.4101736230905391     Y1
    0.6666669847440473    0.3333329859851445    0.5217011085520483     Y2
