Zr-Zr-N-NCO-Cl
   1.000
    3.4114048023290251    0.0000000000000000    0.0000000000000000
   -1.7057024011645125    2.9543632213964610    0.0000000000000000
    0.0000000000000000    0.0000000000000000   25.9761943526876919
   C    Cl   N    O    Zr
    1    1    2    1    2
Direct
    0.3333329854322145    0.6666669831836742    0.6071247011119093     C1
    0.6666669847440474    0.3333329859851446    0.3464710757012330    Cl1
    0.0000000000000000    0.0000000000000000    0.4602628004943317     N1
    0.3333329854322145    0.6666669831836742    0.5590910553589263     N2
    0.3333329854322145    0.6666669831836742    0.6535289242987670     O1
    0.3333329854322145    0.6666669831836742    0.4157012724569689    Zr1
    0.6666669847440474    0.3333329859851446    0.5040490888983156    Zr2
