 Y-Y-C-O-H                              
   1.0000000000000000     
     3.5754163579792975   -0.0000000000000000   -0.0000000000000000
    -1.7877081789896485    3.0964013951217217   -0.0000000000000001
     0.0000000000000017    0.0000000000000035   27.2668759813889281
   C    H    O    Y 
     1     1     1     2
Direct
 -0.0000000000000000 -0.0000000000000000  0.4962649990769081
  0.6666669847440474  0.3333329859851446  0.4121832270114789
  0.3333329854322145  0.6666669831836742  0.5887284537459173
  0.3333329854322145  0.6666669831836742  0.4502865114915735
  0.6666669847440474  0.3333329859851446  0.5627476340987229

  0.00000000E+00  0.00000000E+00  0.00000000E+00
  0.00000000E+00  0.00000000E+00  0.00000000E+00
  0.00000000E+00  0.00000000E+00  0.00000000E+00
  0.00000000E+00  0.00000000E+00  0.00000000E+00
  0.00000000E+00  0.00000000E+00  0.00000000E+00
