Ti-Ti-N-OCl-H
   1.000
    3.0252043323809206    0.0000000000000000    0.0000000000000000
   -1.5126021661904603    2.6199038034782389    0.0000000000000000
    0.0000000000000000    0.0000000000000000   28.5155957921104779
   Cl   H    N    O    Ti
    1    1    1    1    2
Direct
    0.3333329854322145    0.6666669831836742    0.6843832383649489    Cl1
    0.6666669847440474    0.3333329859851445    0.3156167616350511     H1
    0.0000000000000000    0.0000000000000000    0.3899534843772862     N1
    0.3333329854322145    0.6666669831836742    0.4666084820507251     O1
    0.3333329854322145    0.6666669831836742    0.3488561572355696    Ti1
    0.6666669847440474    0.3333329859851445    0.4338422187366850    Ti2
