Ti-Ti-C-OH-OCN
   1.000
    3.1497726543668554    0.0000000000000000    0.0000000000000000
   -1.5748863271834277    2.7277831348417521    0.0000000000000000
    0.0000000000000000    0.0000000000000000   26.2971808033669134
   C    H    N    O    Ti
    2    1    1    2    2
Direct
    0.0000000000000000    0.0000000000000000    0.5296980224961689     C1
    0.6666669847440473    0.3333329859851446    0.3873988369764459     C2
    0.3333329854322145    0.6666669831836742    0.6577579905885691     H1
    0.6666669847440473    0.3333329859851446    0.3422420094114310     N1
    0.3333329854322145    0.6666669831836742    0.6203003008674153     O1
    0.6666669847440473    0.3333329859851446    0.4381395790581932     O2
    0.3333329854322145    0.6666669831836742    0.4876517027325252    Ti1
    0.6666669847440473    0.3333329859851446    0.5724788373667435    Ti2
