Ti-Ti-N-Cl-Cl
   1.000
    3.2439427192863799    0.0000000000000000    0.0000000000000000
   -1.6219713596431899    2.8093368033146997    0.0000000000000000
    0.0000000000000000    0.0000000000000000   23.3964311419999369
   Cl   N    Ti
    2    1    2
Direct
    0.3333329854322145    0.6666669831836742    0.6153259467063028    Cl1
    0.6666669847440474    0.3333329859851446    0.3846740532936972    Cl2
    0.0000000000000000    0.0000000000000000    0.5000000379426299     N1
    0.3333329854322145    0.6666669831836742    0.4565010724625889    Ti1
    0.6666669847440474    0.3333329859851446    0.5434989269710930    Ti2
