Hf-Hf-N-NCO-OCN
   1.000
    3.3239999550833828    0.0000000000000000    0.0000000000000000
   -1.6619999775416914    2.8786684032523957    0.0000000000000000
    0.0000000000000000    0.0000000000000000   28.0073780245477941
   C    Hf   N    O 
    2    2    3    2
Direct
    0.3333329854322145    0.6666669831836742    0.6356500029056902     C1
    0.6666669847440473    0.3333329859851446    0.3637365600334743     C2
    0.3333329854322145    0.6666669831836742    0.4602235160447203    Hf1
    0.6666669847440473    0.3333329859851446    0.5408620605060293    Hf2
    0.0000000000000000    0.0000000000000000    0.4997305329650031     N1
    0.3333329854322145    0.6666669831836742    0.5909491649412025     N2
    0.6666669847440473    0.3333329859851446    0.3213438970299796     N3
    0.3333329854322145    0.6666669831836742    0.6786561029700204     O1
    0.6666669847440473    0.3333329859851446    0.4115980322093056     O2
