Y-Y-C-NO-Cl
   1.000
    3.7010112573147231    0.0000000000000000    0.0000000000000000
   -1.8505056286573616    3.2051697685582718    0.0000000000000000
    0.0000000000000000    0.0000000000000000   25.0371074392880786
   C    Cl   N    O    Y 
    1    1    1    1    2
Direct
    0.0000000000000000    0.0000000000000000    0.4831446927936078     C1
    0.6666669847440474    0.3333329859851445    0.3594664448288963    Cl1
    0.3333329854322145    0.6666669831836742    0.5887574054009981     N1
    0.3333329854322145    0.6666669831836742    0.6405335551711036     O1
    0.3333329854322145    0.6666669831836742    0.4297409961048029     Y1
    0.6666669847440474    0.3333329859851445    0.5388779349766940     Y2
