Sc-Sc-N-NCS-SCN
   1.000
    3.4320974480069202    0.0000000000000000    0.0000000000000000
   -1.7160487240034601    2.9722835782291970    0.0000000000000000
    0.0000000000000000    0.0000000000000000   28.9344906536877460
   C    N    S    Sc
    2    3    2    2
Direct
    0.3333329854322145    0.6666669831836742    0.6352294654657471     C1
    0.6666669847440474    0.3333329859851446    0.3521808718123527     C2
    0.0000000000000000    0.0000000000000000    0.5074786869746619     N1
    0.3333329854322145    0.6666669831836742    0.5920089177657484     N2
    0.6666669847440474    0.3333329859851446    0.3110474660749881     N3
    0.3333329854322145    0.6666669831836742    0.6889525339250120     S1
    0.6666669847440474    0.3333329859851446    0.4100648866131354     S2
    0.3333329854322145    0.6666669831836742    0.4661233311080998    Sc1
    0.6666669847440474    0.3333329859851446    0.5482312789484400    Sc2
