Ti-Ti-C-NO-NCS
   1.000
    3.2153875137610646    0.0000000000000000    0.0000000000000000
   -1.6076937568805323    2.7846072699275473    0.0000000000000000
    0.0000000000000000    0.0000000000000000   26.7160028919083743
   C    N    O    S    Ti
    2    2    1    1    2
Direct
    0.0000000000000000    0.0000000000000000    0.5298019300223934     C1
    0.6666669847440474    0.3333329859851446    0.3949262280790716     C2
    0.3333329854322145    0.6666669831836742    0.6140230700140633     N1
    0.6666669847440474    0.3333329859851446    0.4417788834523323     N2
    0.3333329854322145    0.6666669831836742    0.6631232585048911     O1
    0.6666669847440474    0.3333329859851446    0.3368767414951089     S1
    0.3333329854322145    0.6666669831836742    0.4902395140848859    Ti1
    0.6666669847440474    0.3333329859851446    0.5789568054330696    Ti2
