Hf-Hf-N-NCO-Cl
   1.000
    3.3519077710383280    0.0000000000000000    0.0000000000000000
   -1.6759538855191640    2.9028372808615392    0.0000000000000000
    0.0000000000000000    0.0000000000000000   25.8912483540052385
   C    Cl   Hf   N    O 
    1    1    2    2    1
Direct
    0.3333329854322145    0.6666669831836741    0.6058321280322554     C1
    0.6666669847440475    0.3333329859851445    0.3476078046506301    Cl1
    0.3333329854322145    0.6666669831836741    0.4164465481184537    Hf1
    0.6666669847440475    0.3333329859851445    0.5034494564746312    Hf2
    0.0000000000000000    0.0000000000000000    0.4603861269553375     N1
    0.3333329854322145    0.6666669831836741    0.5575100228311020     N2
    0.3333329854322145    0.6666669831836741    0.6523921953493699     O1
