Ti-Ti-C-Br-OH
   1.000
    3.2238515031465202    0.0000000000000000    0.0000000000000000
   -1.6119257515732601    2.7919372997472345    0.0000000000000000
    0.0000000000000000    0.0000000000000000   24.2775233471041219
   Br   C    H    O    Ti
    1    1    1    1    2
Direct
    0.3333329854322145    0.6666669831836742    0.6292867327806095    Br1
    0.0000000000000000    0.0000000000000000    0.5079235776262033     C1
    0.6666669847440473    0.3333329859851446    0.3707132672193904     H1
    0.6666669847440473    0.3333329859851446    0.4113110595370851     O1
    0.3333329854322145    0.6666669831836742    0.4624858709299722    Ti1
    0.6666669847440473    0.3333329859851446    0.5526114663857294    Ti2
