Ti-Ti-N-NCO-Cl
   1.000
    3.2060459191774044    0.0000000000000000    0.0000000000000000
   -1.6030229595887022    2.7765172117145100    0.0000000000000000
    0.0000000000000000    0.0000000000000000   25.5363836591411228
   C    Cl   N    O    Ti
    1    1    2    1    2
Direct
    0.3333329854322145    0.6666669831836742    0.6004034101828153     C1
    0.6666669847440474    0.3333329859851446    0.3524383139026938    Cl1
    0.0000000000000000    0.0000000000000000    0.4591312243072729     N1
    0.3333329854322145    0.6666669831836742    0.5515855689668981     N2
    0.3333329854322145    0.6666669831836742    0.6475616860973061     O1
    0.3333329854322145    0.6666669831836742    0.4186286186987040    Ti1
    0.6666669847440474    0.3333329859851446    0.4995271909278782    Ti2
