Hf-Hf-C-OCl-SCN
   1.000
    3.5867489852476395    0.0000000000000000    0.0000000000000000
   -1.7933744926238198    3.1062157382204028    0.0000000000000000
    0.0000000000000000    0.0000000000000000   27.2220697554824653
   C    Cl   Hf   N    O    S 
    2    1    2    1    1    1
Direct
    0.0000000000000000    0.0000000000000000    0.5305594631161332     C1
    0.6666669847440474    0.3333329859851446    0.3743462577625724     C2
    0.3333329854322146    0.6666669831836743    0.6693859033923231    Cl1
    0.3333329854322146    0.6666669831836743    0.4984914660897173    Hf1
    0.6666669847440474    0.3333329859851446    0.5912352293251006    Hf2
    0.6666669847440474    0.3333329859851446    0.3306140966076770     N1
    0.3333329854322146    0.6666669831836743    0.5777188208723969     O1
    0.6666669847440474    0.3333329859851446    0.4360110227484735     S1
