Sc-Sc-N-PO-Cl
   1.000
    3.3160683039703169    0.0000000000000000    0.0000000000000000
   -1.6580341519851585    2.8717993919149309    0.0000000000000000
    0.0000000000000000    0.0000000000000000   25.5571163079659200
   Cl   N    O    P    Sc
    1    1    1    1    2
Direct
    0.6666669847440474    0.3333329859851446    0.3521524060676119    Cl1
    0.0000000000000000    0.0000000000000000    0.4649779424439054     N1
    0.3333329854322145    0.6666669831836742    0.6478475939323882     O1
    0.3333329854322145    0.6666669831836742    0.5893802696627503     P1
    0.3333329854322145    0.6666669831836742    0.4188981874413094    Sc1
    0.6666669847440474    0.3333329859851446    0.5122277046418757    Sc2
