Y-Y-C-PO-OCN
   1.000
    3.6351968010836280    0.0000000000000000    0.0000000000000000
   -1.8175984005418140    3.1481727775132509    0.0000000000000000
    0.0000000000000000    0.0000000000000000   28.1164210403534973
   C    N    O    P    Y 
    2    1    2    1    2
Direct
    0.0000000000000000    0.0000000000000000    0.5036056312363095     C1
    0.6666669847440474    0.3333329859851446    0.3624014133624751     C2
    0.6666669847440474    0.3333329859851446    0.3200976392793002     N1
    0.3333329854322145    0.6666669831836741    0.6799023607206998     O1
    0.6666669847440474    0.3333329859851446    0.4098793867034422     O2
    0.3333329854322145    0.6666669831836741    0.6266647142840134     P1
    0.3333329854322145    0.6666669831836741    0.4549252498119420     Y1
    0.6666669847440474    0.3333329859851446    0.5512665609564840     Y2
