Sc-Sc-C-SCN-SCN
   1.000
    3.5818079941831029    0.0000000000000000    0.0000000000000000
   -1.7909039970915515    3.1019367144288368    0.0000000000000000
    0.0000000000000000    0.0000000000000000   29.3354410197580542
   C    N    S    Sc
    3    2    2    2
Direct
    0.0000000000000000    0.0000000000000000    0.5000000250066288     C1
    0.3333329854322145    0.6666669831836742    0.6526161639813022     C2
    0.6666669847440473    0.3333329859851446    0.3473838363891666     C3
    0.3333329854322145    0.6666669831836742    0.6932038623882182     N1
    0.6666669847440473    0.3333329859851446    0.3067961376117818     N2
    0.3333329854322145    0.6666669831836742    0.5955198956568607     S1
    0.6666669847440473    0.3333329859851446    0.4044801047136080     S2
    0.3333329854322145    0.6666669831836742    0.4590487934002037    Sc1
    0.6666669847440473    0.3333329859851446    0.5409512065997899    Sc2
