Hf-Hf-N-F-Cl
   1.000
    3.3692734379138254    0.0000000000000000    0.0000000000000000
   -1.6846367189569127    2.9178763895213731    0.0000000000000000
    0.0000000000000000    0.0000000000000000   23.2813764790169948
   Cl   F    Hf   N 
    1    1    2    1
Direct
    0.6666669847440474    0.3333329859851446    0.3865750810787115    Cl1
    0.3333329854322145    0.6666669831836742    0.6134249189212886     F1
    0.3333329854322145    0.6666669831836742    0.4626638697348189    Hf1
    0.6666669847440474    0.3333329859851446    0.5583272524788729    Hf2
    0.0000000000000000    0.0000000000000000    0.5129736920587360     N1
