Zr-Zr-N-PO-PO
   1.000
    3.2588904121369722    0.0000000000000000    0.0000000000000000
   -1.6294452060684861    2.8222818850355962    0.0000000000000000
    0.0000000000000000    0.0000000000000000   27.5606919716397165
   N    O    P    Zr
    1    2    2    2
Direct
    0.0000000000000000    0.0000000000000000    0.5000000319149207     N1
    0.3333329854322145    0.6666669831836742    0.6734479667904889     O1
    0.6666669847440474    0.3333329859851446    0.3265520332095112     O2
    0.3333329854322145    0.6666669831836742    0.6193392424859725     P1
    0.6666669847440474    0.3333329859851446    0.3806607575140276     P2
    0.3333329854322145    0.6666669831836742    0.4526398767034704    Zr1
    0.6666669847440474    0.3333329859851446    0.5473601228201790    Zr2
