Zr-Zr-C-NO-OH
   1.000
    3.4032363906655512    0.0000000000000000    0.0000000000000000
   -1.7016181953327756    2.9472891693728238    0.0000000000000000
    0.0000000000000000    0.0000000000000000   25.2539581143019554
   C    H    N    O    Zr
    1    1    1    2    2
Direct
    0.0000000000000000    0.0000000000000000    0.4938838505500301     C1
    0.6666669847440474    0.3333329859851446    0.3563797785386788     H1
    0.3333329854322145    0.6666669831836742    0.5909242001451644     N1
    0.3333329854322145    0.6666669831836742    0.6436202214613211     O1
    0.6666669847440474    0.3333329859851446    0.3954485059491368     O2
    0.3333329854322145    0.6666669831836742    0.4486997352131445    Zr1
    0.6666669847440474    0.3333329859851446    0.5522912985610711    Zr2
