Y-Y-N-NCS-F
   1.000
    3.5464491241543432    0.0000000000000000    0.0000000000000000
   -1.7732245620771716    3.0713150347454259    0.0000000000000000
    0.0000000000000000    0.0000000000000000   26.0726819684794542
   C    F    N    S    Y 
    1    1    2    1    2
Direct
    0.3333329854322146    0.6666669831836743    0.5950851271394111     C1
    0.6666669847440474    0.3333329859851446    0.3451888843227000     F1
    0.0000000000000000    0.0000000000000000    0.4406871619138513     N1
    0.3333329854322146    0.6666669831836743    0.5471315507460048     N2
    0.3333329854322146    0.6666669831836743    0.6548111156773000     S1
    0.3333329854322146    0.6666669831836743    0.3921255001448233     Y1
    0.6666669847440474    0.3333329859851446    0.4943822177007619     Y2
