Ti-Ti-C-NO-OCN
   1.000
    3.1843953528725768    0.0000000000000000    0.0000000000000000
   -1.5921976764362884    2.7577672712686550    0.0000000000000000
    0.0000000000000000    0.0000000000000000   26.4527179330139717
   C    N    O    Ti
    2    2    2    2
Direct
    0.0000000000000000    0.0000000000000000    0.5241336235269709     C1
    0.6666669847440474    0.3333329859851446    0.3851590757747849     C2
    0.3333329854322145    0.6666669831836742    0.6101785696508208     N1
    0.6666669847440474    0.3333329859851446    0.3402296891680709     N2
    0.3333329854322145    0.6666669831836742    0.6597703108319291     O1
    0.6666669847440474    0.3333329859851446    0.4356052904078369     O2
    0.3333329854322145    0.6666669831836742    0.4849848270350607    Ti1
    0.6666669847440474    0.3333329859851446    0.5745860210106380    Ti2
