Sc-Sc-C-NO-SCN
   1.000
    3.4816636899072826    0.0000000000000000    0.0000000000000000
   -1.7408318449536413    3.0152092028700550    0.0000000000000000
    0.0000000000000000    0.0000000000000000   27.4495960148639000
   C    N    O    S    Sc
    2    2    1    1    2
Direct
    0.0000000000000000    0.0000000000000000    0.5356491661759839     C1
    0.6666669847440474    0.3333329859851447    0.3712540486622481     C2
    0.3333329854322146    0.6666669831836743    0.6250698935967420     N1
    0.6666669847440474    0.3333329859851447    0.3278736778175722     N2
    0.3333329854322146    0.6666669831836743    0.6721263221824278     O1
    0.6666669847440474    0.3333329859851447    0.4321523609919467     S1
    0.3333329854322146    0.6666669831836743    0.4920132232469150    Sc1
    0.6666669847440474    0.3333329859851447    0.5820265499604784    Sc2
