 Sc-Sc-C-O-H                            
   1.0000000000000000     
     3.2742235102077730   -0.0000000000000000    0.0000000000000000
    -1.6371117551038867    2.8355607375003027   -0.0000000000000000
     0.0000000000000020    0.0000000000000039   32.5141184240467069
   C    H    O    Sc
     1     1     1     2
Direct
  0.0000000000000000 -0.0000000000000000  0.4972776630959466
  0.6666669847440474  0.3333329859851446  0.4293402024440101
  0.3333329854322145  0.6666669831836742  0.5710701174435645
  0.3333329854322145  0.6666669831836742  0.4600026646973525
  0.6666669847440474  0.3333329859851446  0.5485088656701329

  0.00000000E+00  0.00000000E+00  0.00000000E+00
  0.00000000E+00  0.00000000E+00  0.00000000E+00
  0.00000000E+00  0.00000000E+00  0.00000000E+00
  0.00000000E+00  0.00000000E+00  0.00000000E+00
  0.00000000E+00  0.00000000E+00  0.00000000E+00
