Ti-Ti-C-PO-OCN
   1.000
    3.1356161576399737    0.0000000000000000    0.0000000000000000
   -1.5678080788199869    2.7155232490340628    0.0000000000000000
    0.0000000000000000    0.0000000000000000   27.4724657568419204
   C    N    O    P    Ti
    2    1    2    1    2
Direct
    0.0000000000000000    0.0000000000000000    0.5076977341845053     C1
    0.6666669847440474    0.3333329859851447    0.3708355378922134     C2
    0.6666669847440474    0.3333329859851447    0.3276007359389858     N1
    0.3333329854322145    0.6666669831836742    0.6723992640610141     O1
    0.6666669847440474    0.3333329859851447    0.4194825811161773     O2
    0.3333329854322145    0.6666669831836742    0.6181769410976159     P1
    0.3333329854322145    0.6666669831836742    0.4663498087208471    Ti1
    0.6666669847440474    0.3333329859851447    0.5500113691460851    Ti2
