Ti-Ti-C-NO-Cl
   1.000
    3.2153445864593957    0.0000000000000000    0.0000000000000000
   -1.6076722932296978    2.7845700937841285    0.0000000000000000
    0.0000000000000000    0.0000000000000000   24.2938338077716196
   C    Cl   N    O    Ti
    1    1    1    1    2
Direct
    0.0000000000000000    0.0000000000000000    0.4826866160455248     C1
    0.6666669847440473    0.3333329859851446    0.3704643767308925    Cl1
    0.3333329854322145    0.6666669831836742    0.5754619073191740     N1
    0.3333329854322145    0.6666669831836742    0.6295356232691074     O1
    0.3333329854322145    0.6666669831836742    0.4404935382362204    Ti1
    0.6666669847440473    0.3333329859851446    0.5374906508727120    Ti2
