Ti-Ti-C-F-Cl
   1.000
    3.2406763276889285    0.0000000000000000    0.0000000000000000
   -1.6203381638444643    2.8065080252181671    0.0000000000000000
    0.0000000000000000    0.0000000000000000   23.0482357364446706
   C    Cl   F    Ti
    1    1    1    2
Direct
    0.0000000000000000    0.0000000000000000    0.5108636174799497     C1
    0.6666669847440475    0.3333329859851446    0.3904854194878304    Cl1
    0.3333329854322145    0.6666669831836742    0.6095145805121696     F1
    0.3333329854322145    0.6666669831836742    0.4629763577538283    Ti1
    0.6666669847440475    0.3333329859851446    0.5577808342974329    Ti2
