Ti-Ti-N-NCS-NCS
   1.000
    3.2348622063800700    0.0000000000000000    0.0000000000000000
   -1.6174311031900350    2.8014728485042526    0.0000000000000000
    0.0000000000000000    0.0000000000000000   28.2700234284574421
   C    N    S    Ti
    2    3    2    2
Direct
    0.3333329854322145    0.6666669831836742    0.6267791131223370     C1
    0.6666669847440474    0.3333329859851446    0.3732208868776620     C2
    0.0000000000000000    0.0000000000000000    0.5000000318137328     N1
    0.3333329854322145    0.6666669831836742    0.5825138153226600     N2
    0.6666669847440474    0.3333329859851446    0.4174861851486540     N3
    0.3333329854322145    0.6666669831836742    0.6816415797186665     S1
    0.6666669847440474    0.3333329859851446    0.3183584202813335     S2
    0.3333329854322145    0.6666669831836742    0.4630344600769276    Ti1
    0.6666669847440474    0.3333329859851446    0.5369655399230635    Ti2
