Zr-Zr-C-CN-OCN
   1.000
    3.3931118002491609    0.0000000000000000    0.0000000000000000
   -1.6965559001245805    2.9385210168899341    0.0000000000000000
    0.0000000000000000    0.0000000000000000   27.0624361305670575
   C    N    O    Zr
    3    2    1    2
Direct
    0.0000000000000000    0.0000000000000000    0.5212138783723392     C1
    0.3333329854322145    0.6666669831836741    0.6229236969665384     C2
    0.6666669847440475    0.3333329859851446    0.3764774738672826     C3
    0.3333329854322145    0.6666669831836741    0.6674357047318999     N1
    0.6666669847440475    0.3333329859851446    0.3325642952681001     N2
    0.6666669847440475    0.3333329859851446    0.4258490891728501     O1
    0.3333329854322145    0.6666669831836741    0.4768524077948988    Zr1
    0.6666669847440475    0.3333329859851446    0.5679779000379293    Zr2
