Ti-Ti-C-H-OH
   1.000
    3.0887718507333166    0.0000000000000000    0.0000000000000000
   -1.5443859253666583    2.6749548892298813    0.0000000000000000
    0.0000000000000000    0.0000000000000000   23.4962989185474136
   C    H    O    Ti
    1    2    1    2
Direct
    0.0000000000000000    0.0000000000000000    0.5271594745271464     C1
    0.3333329854322146    0.6666669831836742    0.6169609506927231     H1
    0.6666669847440474    0.3333329859851446    0.3830390493072769     H2
    0.6666669847440474    0.3333329859851446    0.4250121274831701     O1
    0.3333329854322146    0.6666669831836742    0.4785314571267834    Ti1
    0.6666669847440474    0.3333329859851446    0.5760891030441261    Ti2
