Sc-Sc-N-SCN-Br
   1.000
    3.4834757482529413    0.0000000000000000    0.0000000000000000
   -1.7417378741264706    3.0167784914486346    0.0000000000000000
    0.0000000000000000    0.0000000000000000   26.6425813160582337
   Br   C    N    S    Sc
    1    1    2    1    2
Direct
    0.6666669847440474    0.3333329859851446    0.3378051057903855    Br1
    0.3333329854322146    0.6666669831836742    0.6175227745470826     C1
    0.0000000000000000    0.0000000000000000    0.4494993586368436     N1
    0.3333329854322146    0.6666669831836742    0.6621948942096145     N2
    0.3333329854322146    0.6666669831836742    0.5545659964848906     S1
    0.3333329854322146    0.6666669831836742    0.4069178225046756    Sc1
    0.6666669847440474    0.3333329859851446    0.4945285426938081    Sc2
