Zr-Zr-C-SCN-H
   1.000
    3.4397318544105633    0.0000000000000000    0.0000000000000000
   -1.7198659272052816    2.9788951681150144    0.0000000000000000
    0.0000000000000000    0.0000000000000000   26.0101996927601817
   C    H    N    S    Zr
    2    1    1    1    2
Direct
    0.0000000000000000    0.0000000000000000    0.4302887832355945     C1
    0.3333329854322145    0.6666669831836742    0.6082030999688004     C2
    0.6666669847440474    0.3333329859851446    0.3460181046785699     H1
    0.3333329854322145    0.6666669831836742    0.6539818953214303     N1
    0.3333329854322145    0.6666669831836742    0.5437037750889737     S1
    0.3333329854322145    0.6666669831836742    0.3834147467096985    Zr1
    0.6666669847440474    0.3333329859851446    0.4781394496168032    Zr2
