Sc-Sc-C-F-OCN
   1.000
    3.3673513850786994    0.0000000000000000    0.0000000000000000
   -1.6836756925393497    2.9162118429353097    0.0000000000000000
    0.0000000000000000    0.0000000000000000   25.3489807605272333
   C    F    N    O    Sc
    2    1    1    1    2
Direct
    0.0000000000000000    0.0000000000000000    0.5520313578958600     C1
    0.6666669847440474    0.3333329859851445    0.4019135721821109     C2
    0.3333329854322145    0.6666669831836741    0.6449561390643932     F1
    0.6666669847440474    0.3333329859851445    0.3550438609356067     N1
    0.6666669847440474    0.3333329859851445    0.4546160955180327     O1
    0.3333329854322145    0.6666669831836741    0.5030062586450705    Sc1
    0.6666669847440474    0.3333329859851445    0.6017535993446154    Sc2
