Hf-Hf-N-Cl-Cl
   1.000
    3.3960009132033999    0.0000000000000000    0.0000000000000000
   -1.6980004566017000    2.9410230621008644    0.0000000000000000
    0.0000000000000000    0.0000000000000000   23.7532095881222993
   Cl   Hf   N 
    2    2    1
Direct
    0.3333329854322145    0.6666669831836742    0.6211038358159221    Cl1
    0.6666669847440473    0.3333329859851446    0.3788961641840779    Cl2
    0.3333329854322145    0.6666669831836742    0.4533701876972490    Hf1
    0.6666669847440473    0.3333329859851446    0.5466298117937736    Hf2
    0.0000000000000000    0.0000000000000000    0.5000000341008735     N1
