Sc-Sc-C-O-Br
   1.000
    3.3811353188784676    0.0000000000000000    0.0000000000000000
   -1.6905676594392338    2.9281490797775218    0.0000000000000000
    0.0000000000000000    0.0000000000000000   23.4087300007815600
   Br   C    O    Sc
    1    1    1    2
Direct
    0.6666669847440474    0.3333329859851446    0.3844719469915502    Br1
    0.0000000000000000    0.0000000000000000    0.5148910361486816     C1
    0.3333329854322145    0.6666669831836742    0.6155280530084498     O1
    0.3333329854322145    0.6666669831836742    0.4660576218791551    Sc1
    0.6666669847440474    0.3333329859851446    0.5873220670162379    Sc2
