Ti-Ti-C-SCN-SCN
   1.000
    3.3742579643175996    0.0000000000000000    0.0000000000000000
   -1.6871289821587998    2.9221931160251162    0.0000000000000000
    0.0000000000000000    0.0000000000000000   28.9457996585296691
   C    N    S    Ti
    3    2    2    2
Direct
    0.0000000000000000    0.0000000000000000    0.5000000285568472     C1
    0.3333329854322145    0.6666669831836742    0.6479189191309179     C2
    0.6666669847440474    0.3333329859851446    0.3520810812921469     C3
    0.3333329854322145    0.6666669831836742    0.6890740588903405     N1
    0.6666669847440474    0.3333329859851446    0.3109259411096595     N2
    0.3333329854322145    0.6666669831836742    0.5899369741374848     S1
    0.6666669847440474    0.3333329859851446    0.4100630262855804     S2
    0.3333329854322145    0.6666669831836742    0.4634432463066348    Ti1
    0.6666669847440474    0.3333329859851446    0.5365567536933581    Ti2
