Hf-Hf-N-H-OH
   1.000
    3.2199327722573106    0.0000000000000000    0.0000000000000000
   -1.6099663861286553    2.7885435792517792    0.0000000000000000
    0.0000000000000000    0.0000000000000000   23.7626958424052397
   H    Hf   N    O 
    2    2    1    1
Direct
    0.3333329854322145    0.6666669831836742    0.6212550941320709     H1
    0.6666669847440475    0.3333329859851446    0.3787449058679291     H2
    0.3333329854322145    0.6666669831836742    0.4763376455943981    Hf1
    0.6666669847440475    0.3333329859851446    0.5785544205277702    Hf2
    0.0000000000000000    0.0000000000000000    0.5266454943830393     N1
    0.6666669847440475    0.3333329859851446    0.4207359379519844     O1
