Hf-Hf-N-OCl-OCl
   1.000
    3.2390618026274725    0.0000000000000000    0.0000000000000000
   -1.6195309013137362    2.8051098054806101    0.0000000000000000
    0.0000000000000000    0.0000000000000000   29.0998506427715817
   Cl   Hf   N    O 
    2    2    1    2
Direct
    0.3333329854322145    0.6666669831836742    0.6907200620895418    Cl1
    0.6666669847440474    0.3333329859851446    0.3092799379104582    Cl2
    0.3333329854322145    0.6666669831836742    0.4534412349271674    Hf1
    0.6666669847440474    0.3333329859851446    0.5465587646161447    Hf2
    0.0000000000000000    0.0000000000000000    0.5000000305980837     N1
    0.3333329854322145    0.6666669831836742    0.5772429675851553     O1
    0.6666669847440474    0.3333329859851446    0.4227570324148529     O2
