 Sc-Sc-C-O-Cl                           
   1.0000000000000000     
     3.3290359208535549    0.0000000000000001    0.0000000000000000
    -1.6645179604267777    2.8830296775594459   -0.0000000000000000
     0.0000000000000020    0.0000000000000031   31.4522461443191332
   C    Cl   O    Sc
     1     1     1     2
Direct
  0.0000000000000000 -0.0000000000000000  0.5089981319159398
  0.6666669847440474  0.3333329859851446  0.4155398484274923
  0.3333329854322145  0.6666669831836742  0.5846053588034645
  0.3333329854322145  0.6666669831836742  0.4702723631946654
  0.6666669847440474  0.3333329859851446  0.5623633720867506

  0.00000000E+00  0.00000000E+00  0.00000000E+00
  0.00000000E+00  0.00000000E+00  0.00000000E+00
  0.00000000E+00  0.00000000E+00  0.00000000E+00
  0.00000000E+00  0.00000000E+00  0.00000000E+00
  0.00000000E+00  0.00000000E+00  0.00000000E+00
