Hf-Hf-C-PO-H
   1.000
    3.2708248435342377    0.0000000000000000    0.0000000000000000
   -1.6354124217671189    2.8326174058263440    0.0000000000000000
    0.0000000000000000    0.0000000000000000   24.9792782392165620
   C    H    Hf   O    P 
    1    1    2    1    1
Direct
    0.0000000000000000    0.0000000000000000    0.4505623162010054     C1
    0.6666669847440473    0.3333329859851446    0.3602986408898847     H1
    0.3333329854322145    0.6666669831836742    0.4006888236342356    Hf1
    0.6666669847440473    0.3333329859851446    0.5010875401959254    Hf2
    0.3333329854322145    0.6666669831836742    0.6397013591101153     O1
    0.3333329854322145    0.6666669831836742    0.5798803494522985     P1
