Y-Y-N-CN-CN
   1.000
    3.5936439294910159    0.0000000000000000    0.0000000000000000
   -1.7968219647455079    3.1121869351014291    0.0000000000000000
    0.0000000000000000    0.0000000000000000   26.0473277046610434
   C    N    Y 
    2    3    2
Direct
    0.3333329854322145    0.6666669831836742    0.6083910684003359     C1
    0.6666669847440475    0.3333329859851445    0.3916089320141557     C2
    0.0000000000000000    0.0000000000000000    0.5000000279781577     N1
    0.3333329854322145    0.6666669831836742    0.6544751115336298     N2
    0.6666669847440475    0.3333329859851445    0.3455248884663701     N3
    0.3333329854322145    0.6666669831836742    0.4490038616284932     Y1
    0.6666669847440475    0.3333329859851445    0.5509961383714999     Y2
