Zr-Zr-N-NO-NCS
   1.000
    3.3732672690839705    0.0000000000000000    0.0000000000000000
   -1.6866336345419852    2.9213351487733745    0.0000000000000000
    0.0000000000000000    0.0000000000000000   27.1706485837604035
   C    N    O    S    Zr
    1    3    1    1    2
Direct
    0.6666669847440473    0.3333329859851446    0.3883586659360591     C1
    0.0000000000000000    0.0000000000000000    0.5295653583792377     N1
    0.3333329854322145    0.6666669831836742    0.6202341881559055     N2
    0.6666669847440473    0.3333329859851446    0.4345798112460468     N3
    0.3333329854322145    0.6666669831836742    0.6687602074622834     O1
    0.6666669847440473    0.3333329859851446    0.3312397925377166     S1
    0.3333329854322145    0.6666669831836742    0.4860823216822758    Zr1
    0.6666669847440473    0.3333329859851446    0.5783455666749524    Zr2
