Sc-Sc-N-CN-OCN
   1.000
    3.3057280569737948    0.0000000000000000    0.0000000000000000
   -1.6528640284868974    2.8628444753384135    0.0000000000000000
    0.0000000000000000    0.0000000000000000   26.8298260683024417
   C    N    O    Sc
    2    3    1    2
Direct
    0.3333329854322145    0.6666669831836742    0.6198034659462767     C1
    0.6666669847440474    0.3333329859851446    0.3797204661512149     C2
    0.0000000000000000    0.0000000000000000    0.5197769090089875     N1
    0.3333329854322145    0.6666669831836742    0.6645524284395988     N2
    0.6666669847440474    0.3333329859851446    0.3354475715604012     N3
    0.6666669847440474    0.3333329859851446    0.4295816807020553     O1
    0.3333329854322145    0.6666669831836742    0.4761590702474302    Sc1
    0.6666669847440474    0.3333329859851446    0.5666429121473165    Sc2
