Y-Y-N-H-OCN
   1.000
    3.5285599262303076    0.0000000000000000    0.0000000000000000
   -1.7642799631151538    3.0558225348853680    0.0000000000000000
    0.0000000000000000    0.0000000000000000   25.5287572595567234
   C    H    N    O    Y 
    1    1    2    1    2
Direct
    0.6666669847440474    0.3333329859851446    0.3990968162125144     C1
    0.3333329854322145    0.6666669831836742    0.6474563995225096     H1
    0.0000000000000000    0.0000000000000000    0.5534457427375927     N1
    0.6666669847440474    0.3333329859851446    0.3525436004774904     N2
    0.6666669847440474    0.3333329859851446    0.4513596298547927     O1
    0.3333329854322145    0.6666669831836742    0.5038882211484146     Y1
    0.6666669847440474    0.3333329859851446    0.6082591260931141     Y2
