Ti-Ti-N-CN-OH
   1.000
    3.1468042494881052    0.0000000000000000    0.0000000000000000
   -1.5734021247440526    2.7252124207899922    0.0000000000000000
    0.0000000000000000    0.0000000000000000   24.9881133502005319
   C    H    N    O    Ti
    1    1    2    1    2
Direct
    0.3333329854322145    0.6666669831836742    0.5917110182961977     C1
    0.6666669847440474    0.3333329859851446    0.3601712491802738     H1
    0.0000000000000000    0.0000000000000000    0.4914621153058416     N1
    0.3333329854322145    0.6666669831836742    0.6398287508197262     N2
    0.6666669847440474    0.3333329859851446    0.3996487932752730     O1
    0.3333329854322145    0.6666669831836742    0.4493293270195369    Ti1
    0.6666669847440474    0.3333329859851446    0.5345271943447933    Ti2
