Ti-Ti-C-NCS-F
   1.000
    3.2345768474031984    0.0000000000000000    0.0000000000000000
   -1.6172884237015992    2.8012257203438340    0.0000000000000000
    0.0000000000000000    0.0000000000000000   25.4857504754376478
   C    F    N    S    Ti
    2    1    1    1    2
Direct
    0.0000000000000000    0.0000000000000000    0.4423810698803483     C1
    0.3333329854322144    0.6666669831836742    0.5860025369327422     C2
    0.6666669847440473    0.3333329859851447    0.3531385119961020     F1
    0.3333329854322144    0.6666669831836742    0.5368525411637228     N1
    0.3333329854322144    0.6666669831836742    0.6468614880038981     S1
    0.3333329854322144    0.6666669831836742    0.4001130843871427    Ti1
    0.6666669847440473    0.3333329859851447    0.4872028623168020    Ti2
