Sc-Sc-C-NO-F
   1.000
    3.3719501153175599    0.0000000000000000    0.0000000000000000
   -1.6859750576587800    2.9201944601585721    0.0000000000000000
    0.0000000000000000    0.0000000000000000   24.1709659214024200
   C    F    N    O    Sc
    1    1    1    1    2
Direct
    0.0000000000000000    0.0000000000000000    0.4698869597754466     C1
    0.6666669847440474    0.3333329859851446    0.3723475524009101     F1
    0.3333329854322145    0.6666669831836742    0.5743734662758002     N1
    0.3333329854322145    0.6666669831836742    0.6276524475990899     O1
    0.3333329854322145    0.6666669831836742    0.4180611306331499    Sc1
    0.6666669847440474    0.3333329859851446    0.5223806682713175    Sc2
