Ti-Ti-C-OCN-OCN
   1.000
    3.1752328281423741    0.0000000000000000    0.0000000000000000
   -1.5876164140711870    2.7498322920939304    0.0000000000000000
    0.0000000000000000    0.0000000000000000   27.8433666884790263
   C    N    O    Ti
    3    2    2    2
Direct
    0.0000000000000000    0.0000000000000000    0.5000000332774857     C1
    0.3333329854322145    0.6666669831836742    0.6340883173936372     C2
    0.6666669847440474    0.3333329859851446    0.3659116821096838     C3
    0.3333329854322145    0.6666669831836742    0.6767632269224109     N1
    0.6666669847440474    0.3333329859851446    0.3232367730775891     N2
    0.3333329854322145    0.6666669831836742    0.5861069686080382     O1
    0.6666669847440474    0.3333329859851446    0.4138930313919623     O2
    0.3333329854322145    0.6666669831836742    0.4602752336055506    Ti1
    0.6666669847440474    0.3333329859851446    0.5397247658977620    Ti2
