Y-Y-C-SCN-OH
   1.000
    3.7154668210161401    0.0000000000000000    0.0000000000000000
   -1.8577334105080701    3.2176886539581204    0.0000000000000000
    0.0000000000000000    0.0000000000000000   27.5632570214706405
   C    H    N    O    S    Y 
    2    1    1    1    1    2
Direct
    0.0000000000000000    0.0000000000000000    0.4571658101088205     C1
    0.3333329854322145    0.6666669831836742    0.6303002433265839     C2
    0.6666669847440473    0.3333329859851446    0.3265216441217151     H1
    0.3333329854322145    0.6666669831836742    0.6734783558782849     N1
    0.6666669847440473    0.3333329859851446    0.3623350868876418     O1
    0.3333329854322145    0.6666669831836742    0.5696273703818027     S1
    0.3333329854322145    0.6666669831836742    0.4073018263364109     Y1
    0.6666669847440473    0.3333329859851446    0.5053649596707770     Y2
