Ti-Ti-N-SCN-OCN
   1.000
    3.2774238968615506    0.0000000000000000    0.0000000000000000
   -1.6387119484307753    2.8383323536589127    0.0000000000000000
    0.0000000000000000    0.0000000000000000   28.2463984115296540
   C    N    O    S    Ti
    2    3    1    1    2
Direct
    0.3333329854322145    0.6666669831836742    0.6392042631753674     C1
    0.6666669847440475    0.3333329859851446    0.3606968933420562     C2
    0.0000000000000000    0.0000000000000000    0.4865458812785529     N1
    0.3333329854322145    0.6666669831836742    0.6813753077869791     N2
    0.6666669847440475    0.3333329859851446    0.3186246922130209     N3
    0.6666669847440475    0.3333329859851446    0.4079780777998864     O1
    0.3333329854322145    0.6666669831836742    0.5798760479992799     S1
    0.3333329854322145    0.6666669831836742    0.4525333393668531    Ti1
    0.6666669847440475    0.3333329859851446    0.5247289651013169    Ti2
