Sc-Sc-N-SCN-Cl
   1.000
    3.4428965876050626    0.0000000000000000    0.0000000000000000
   -1.7214482938025313    2.9816359074565648    0.0000000000000000
    0.0000000000000000    0.0000000000000000   26.4970925680564449
   C    Cl   N    S    Sc
    1    1    2    1    2
Direct
    0.3333329854322145    0.6666669831836742    0.6154224906459499     C1
    0.6666669847440474    0.3333329859851446    0.3396599070967486    Cl1
    0.0000000000000000    0.0000000000000000    0.4457096948784388     N1
    0.3333329854322145    0.6666669831836742    0.6603400929032514     N2
    0.3333329854322145    0.6666669831836742    0.5521776904496980     S1
    0.3333329854322145    0.6666669831836742    0.4024973128536002    Sc1
    0.6666669847440474    0.3333329859851446    0.4912965490642686    Sc2
