Hf-Hf-C-NCO-PO
   1.000
    3.3012019671445119    0.0000000000000000    0.0000000000000000
   -1.6506009835722559    2.8589247665732080    0.0000000000000000
    0.0000000000000000    0.0000000000000000   27.8182181978968757
   C    Hf   N    O    P 
    2    2    1    2    1
Direct
    0.0000000000000000    0.0000000000000000    0.4938028271985549     C1
    0.3333329854322145    0.6666669831836742    0.6331929548361734     C2
    0.3333329854322145    0.6666669831836742    0.4477750581549578    Hf1
    0.6666669847440475    0.3333329859851446    0.5368946325603079    Hf2
    0.3333329854322145    0.6666669831836742    0.5882574847781719     N1
    0.3333329854322145    0.6666669831836742    0.6764710113360020     O1
    0.6666669847440475    0.3333329859851446    0.3235289886639980     O2
    0.6666669847440475    0.3333329859851446    0.3772304194612390     P1
