Zr-Zr-C-NCO-NCO
   1.000
    3.3778889659656852    0.0000000000000000    0.0000000000000000
   -1.6889444829828426    2.9253376556441815    0.0000000000000000
    0.0000000000000000    0.0000000000000000   28.2624385084547392
   C    N    O    Zr
    3    2    2    2
Direct
    0.0000000000000000    0.0000000000000000    0.5000000289683051     C1
    0.3333329854322145    0.6666669831836742    0.6389254159820932     C2
    0.6666669847440474    0.3333329859851446    0.3610745835855515     C3
    0.3333329854322145    0.6666669831836742    0.5947966350809584     N1
    0.6666669847440474    0.3333329859851446    0.4052033649190490     N2
    0.3333329854322145    0.6666669831836742    0.6815561404120298     O1
    0.6666669847440474    0.3333329859851446    0.3184438595879701     O2
    0.3333329854322145    0.6666669831836742    0.4565224837197352    Zr1
    0.6666669847440474    0.3333329859851446    0.5434775158479019    Zr2
