Y-Y-C-NCS-OCN
   1.000
    3.6701280314920486    0.0000000000000000    0.0000000000000000
   -1.8350640157460243    3.1784241104135305    0.0000000000000000
    0.0000000000000000    0.0000000000000000   28.6850683163001605
   C    N    O    S    Y 
    3    2    1    1    2
Direct
    0.0000000000000000    0.0000000000000000    0.4929345954191224     C1
    0.3333329854322145    0.6666669831836742    0.6318927085635443     C2
    0.6666669847440474    0.3333329859851447    0.3552172199406519     C3
    0.3333329854322145    0.6666669831836742    0.5883833604076613     N1
    0.6666669847440474    0.3333329859851447    0.3137520852577433     N2
    0.6666669847440474    0.3333329859851447    0.4016578216349320     O1
    0.3333329854322145    0.6666669831836742    0.6862479147422567     S1
    0.3333329854322145    0.6666669831836742    0.4458458975227830     Y1
    0.6666669847440474    0.3333329859851447    0.5408447492267447     Y2
