 La-La-C-O-Cl                           
   1.0000000000000000     
     3.9554788586044429   -0.0000000000000004    0.0000000000000001
    -1.9777394293022221    3.4255451756852069    0.0000000000000001
     0.0000000000000031    0.0000000000000052   22.2787332262306670
   C    Cl   O    La
     1     1     1     2
Direct
  0.0000000000000000  0.0000000000000000  0.5060734174967735
  0.6666669847440474  0.3333329859851446  0.3716046153574889
  0.3333329854322145  0.6666669831836742  0.6145340880424719
  0.3333329854322145  0.6666669831836742  0.4546843604777080
  0.6666669847440474  0.3333329859851446  0.5923531636217905

  0.00000000E+00  0.00000000E+00  0.00000000E+00
  0.00000000E+00  0.00000000E+00  0.00000000E+00
  0.00000000E+00  0.00000000E+00  0.00000000E+00
  0.00000000E+00  0.00000000E+00  0.00000000E+00
  0.00000000E+00  0.00000000E+00  0.00000000E+00
