Zr-Zr-N-CN-PO
   1.000
    3.3014135521653381    0.0000000000000000    0.0000000000000000
   -1.6507067760826690    2.8591080045703019    0.0000000000000000
    0.0000000000000000    0.0000000000000000   26.7202502835748561
   C    N    O    P    Zr
    1    2    1    1    2
Direct
    0.3333329854322145    0.6666669831836741    0.6179718805489290     C1
    0.0000000000000000    0.0000000000000000    0.5142759682520327     N1
    0.3333329854322145    0.6666669831836741    0.6631768076838573     N2
    0.6666669847440474    0.3333329859851445    0.3368231923161427     O1
    0.6666669847440474    0.3333329859851445    0.3926928015050888     P1
    0.3333329854322145    0.6666669831836741    0.4662764442219349    Zr1
    0.6666669847440474    0.3333329859851445    0.5616772960725724    Zr2
