Y-Y-C-NCO-NCS
   1.000
    3.6617691880961512    0.0000000000000000    0.0000000000000000
   -1.8308845940480756    3.1711851396874353    0.0000000000000000
    0.0000000000000000    0.0000000000000000   28.7693051878203256
   C    N    O    S    Y 
    3    2    1    1    2
Direct
    0.0000000000000000    0.0000000000000000    0.5058160129230518     C1
    0.3333329854322146    0.6666669831836743    0.6452097895466206     C2
    0.6666669847440474    0.3333329859851446    0.3670604045204391     C3
    0.3333329854322146    0.6666669831836743    0.6019119992317009     N1
    0.6666669847440474    0.3333329859851446    0.4104039956834807     N2
    0.3333329854322146    0.6666669831836743    0.6871665846205347     O1
    0.6666669847440474    0.3333329859851446    0.3128334153794653     S1
    0.3333329854322146    0.6666669831836743    0.4581459840831668     Y1
    0.6666669847440474    0.3333329859851446    0.5529911412912055     Y2
