Sc-Sc-N-Br-OH
   1.000
    3.3472235845486229    0.0000000000000000    0.0000000000000000
   -1.6736117922743114    2.8987806563576228    0.0000000000000000
    0.0000000000000000    0.0000000000000000   24.4710448171928370
   Br   H    N    O    Sc
    1    1    1    1    2
Direct
    0.3333329854322145    0.6666669831836742    0.6322184006758556    Br1
    0.6666669847440474    0.3333329859851446    0.3677815993241445     H1
    0.0000000000000000    0.0000000000000000    0.5062278687813990     N1
    0.6666669847440474    0.3333329859851446    0.4080672460351192     O1
    0.3333329854322145    0.6666669831836742    0.4573508634492629    Sc1
    0.6666669847440474    0.3333329859851446    0.5553022697251957    Sc2
