Ti-Ti-N-NCS-F
   1.000
    3.2510462674782343    0.0000000000000000    0.0000000000000000
   -1.6255231337391172    2.8154886565132755    0.0000000000000000
    0.0000000000000000    0.0000000000000000   25.3584721923700052
   C    F    N    S    Ti
    1    1    2    1    2
Direct
    0.3333329854322145    0.6666669831836742    0.5839100667909842     C1
    0.6666669847440474    0.3333329859851446    0.3549109714388854     F1
    0.0000000000000000    0.0000000000000000    0.4417755432919915     N1
    0.3333329854322145    0.6666669831836742    0.5345284758980305     N2
    0.3333329854322145    0.6666669831836742    0.6450890285611146     S1
    0.3333329854322145    0.6666669831836742    0.4025195394126492    Ti1
    0.6666669847440474    0.3333329859851446    0.4841703584751951    Ti2
