Hf-Hf-N-PO-O
   1.000
    3.2131826257725082    0.0000000000000000    0.0000000000000000
   -1.6065913128862541    2.7826977809172000    0.0000000000000000
    0.0000000000000000    0.0000000000000000   25.0567829833243678
   Hf   N    O    P 
    2    1    2    1
Direct
    0.3333329854322145    0.6666669831836742    0.3979777118310822    Hf1
    0.6666669847440474    0.3333329859851446    0.5037130079142278    Hf2
    0.0000000000000000    0.0000000000000000    0.4487797652652984     N1
    0.3333329854322145    0.6666669831836742    0.6408158219676634     O1
    0.6666669847440474    0.3333329859851446    0.3591841780323365     O2
    0.3333329854322145    0.6666669831836742    0.5812898261497634     P1
