Ti-Ti-C-OCl-F
   1.000
    3.1559738503396408    0.0000000000000000    0.0000000000000000
   -1.5779869251698204    2.7331535280933479    0.0000000000000000
    0.0000000000000000    0.0000000000000000   27.0626733410096314
   C    Cl   F    O    Ti
    1    1    1    1    2
Direct
    0.0000000000000000    0.0000000000000000    0.4190487821784944     C1
    0.3333329854322145    0.6666669831836742    0.6674386197330409    Cl1
    0.6666669847440475    0.3333329859851446    0.3325613802669590     F1
    0.3333329854322145    0.6666669831836742    0.5006136164575481     O1
    0.3333329854322145    0.6666669831836742    0.3779543837741359    Ti1
    0.6666669847440475    0.3333329859851446    0.4689948008671940    Ti2
