Zr-Zr-N-NCO-NCO
   1.000
    3.3759465408224356    0.0000000000000000    0.0000000000000000
   -1.6879732704112178    2.9236554661855298    0.0000000000000000
    0.0000000000000000    0.0000000000000000   28.1066477372714161
   C    N    O    Zr
    2    3    2    2
Direct
    0.3333329854322145    0.6666669831836742    0.6369229764847815     C1
    0.6666669847440474    0.3333329859851446    0.3630770230799668     C2
    0.0000000000000000    0.0000000000000000    0.5000000291624018     N1
    0.3333329854322145    0.6666669831836742    0.5925312689544326     N2
    0.6666669847440474    0.3333329859851446    0.4074687310455762     N3
    0.3333329854322145    0.6666669831836742    0.6797910556915914     O1
    0.6666669847440474    0.3333329859851446    0.3202089443084086     O2
    0.3333329854322145    0.6666669831836742    0.4587213100391106    Zr1
    0.6666669847440474    0.3333329859851446    0.5412786895256302    Zr2
