Y-Y-C-F-H
   1.000
    3.5975815267864260    0.0000000000000000    0.0000000000000000
   -1.7987907633932130    3.1155969943871620    0.0000000000000000
    0.0000000000000000    0.0000000000000000   22.9910115552998136
   C    F    H    Y 
    1    1    1    2
Direct
    0.0000000000000000    0.0000000000000000    0.4976669309926431     C1
    0.3333329854322145    0.6666669831836742    0.6085426698885136     F1
    0.6666669847440474    0.3333329859851445    0.3914573301114864     H1
    0.3333329854322145    0.6666669831836742    0.4382167797099666     Y1
    0.6666669847440474    0.3333329859851445    0.5575951219499711     Y2
