Hf-Hf-N-OCl-SCN
   1.000
    3.2848590893709417    0.0000000000000000    0.0000000000000000
   -1.6424295446854709    2.8447714192527611    0.0000000000000000
    0.0000000000000000    0.0000000000000000   29.4250792938797296
   C    Cl   Hf   N    O    S 
    1    1    2    2    1    1
Direct
    0.6666669847440474    0.3333329859851446    0.3463103356341743     C1
    0.3333329854322145    0.6666669831836742    0.6941384622922000    Cl1
    0.3333329854322145    0.6666669831836742    0.4604657385160562    Hf1
    0.6666669847440474    0.3333329859851446    0.5514153683227119    Hf2
    0.0000000000000000    0.0000000000000000    0.5084498465738461     N1
    0.6666669847440474    0.3333329859851446    0.3058615377077999     N2
    0.3333329854322145    0.6666669831836742    0.5809369032196297     O1
    0.6666669847440474    0.3333329859851446    0.4044888219334589     S1
