Ti-Ti-C-NO-O
   1.000
    3.0890621307988364    0.0000000000000000    0.0000000000000000
   -1.5445310653994182    2.6752062791520439    0.0000000000000000
    0.0000000000000000    0.0000000000000000   23.9306314510381313
   C    N    O    Ti
    1    1    2    2
Direct
    0.0000000000000000    0.0000000000000000    0.4686234306882859     C1
    0.3333329854322145    0.6666669831836742    0.5699549865433104     N1
    0.3333329854322145    0.6666669831836742    0.6239129745316615     O1
    0.6666669847440474    0.3333329859851446    0.3760870254683385     O2
    0.3333329854322145    0.6666669831836742    0.4132570176246540    Ti1
    0.6666669847440474    0.3333329859851446    0.5186936038124310    Ti2
