Ti-Ti-N-NO-SCN
   1.000
    3.1916375066842759    0.0000000000000000    0.0000000000000000
   -1.5958187533421377    2.7640391604727608    0.0000000000000000
    0.0000000000000000    0.0000000000000000   28.0495523476092963
   C    N    O    S    Ti
    1    3    1    1    2
Direct
    0.6666669847440474    0.3333329859851446    0.3633397939079573     C1
    0.0000000000000000    0.0000000000000000    0.5057634897083636     N1
    0.3333329854322145    0.6666669831836742    0.6077658411827678     N2
    0.6666669847440474    0.3333329859851446    0.3208607356176607     N3
    0.3333329854322145    0.6666669831836742    0.6791392643823393     O1
    0.6666669847440474    0.3333329859851446    0.4225832049610565     S1
    0.3333329854322145    0.6666669831836742    0.4839195365971694    Ti1
    0.6666669847440474    0.3333329859851446    0.6393917628329346    Ti2
