Ti-Ti-N-NCO-PO
   1.000
    3.1395806916577613    0.0000000000000000    0.0000000000000000
   -1.5697903458288807    2.7189566362072899    0.0000000000000000
    0.0000000000000000    0.0000000000000000   27.3180552423510257
   C    N    O    P    Ti
    1    2    2    1    2
Direct
    0.3333329854322145    0.6666669831836742    0.6265022969428137     C1
    0.0000000000000000    0.0000000000000000    0.4928122103689215     N1
    0.3333329854322145    0.6666669831836742    0.5808418155825723     N2
    0.3333329854322145    0.6666669831836742    0.6705475583764341     O1
    0.6666669847440474    0.3333329859851446    0.3294524416235659     O2
    0.6666669847440474    0.3333329859851446    0.3840419148014480     P1
    0.3333329854322145    0.6666669831836742    0.4518326461953309    Ti1
    0.6666669847440474    0.3333329859851446    0.5318121178012168    Ti2
