Sc-Sc-N-NO-Cl
   1.000
    3.3477423947691238    0.0000000000000000    0.0000000000000000
   -1.6738711973845619    2.8992299591850612    0.0000000000000000
    0.0000000000000000    0.0000000000000000   24.5726982423915601
   Cl   N    O    Sc
    1    2    1    2
Direct
    0.6666669847440475    0.3333329859851446    0.3662601441332015    Cl1
    0.0000000000000000    0.0000000000000000    0.4790481797082894     N1
    0.3333329854322145    0.6666669831836742    0.5798829730883960     N2
    0.3333329854322145    0.6666669831836742    0.6337398558667985     O1
    0.3333329854322145    0.6666669831836742    0.4362129577182099    Sc1
    0.6666669847440475    0.3333329859851446    0.5402497037286172    Sc2
