Hf-Hf-C-NCO-SCN
   1.000
    3.4292353793599042    0.0000000000000000    0.0000000000000000
   -1.7146176896799521    2.9698049540675648    0.0000000000000000
    0.0000000000000000    0.0000000000000000   28.7601375773470984
   C    Hf   N    O    S 
    3    2    2    1    1
Direct
    0.0000000000000000    0.0000000000000000    0.5135212725645000     C1
    0.3333329854322145    0.6666669831836742    0.6451957035677266     C2
    0.6666669847440475    0.3333329859851446    0.3543198284981371     C3
    0.3333329854322145    0.6666669831836742    0.4708857073707494    Hf1
    0.6666669847440475    0.3333329859851446    0.5525288077507405    Hf2
    0.3333329854322145    0.6666669831836742    0.6017196948411353     N1
    0.6666669847440475    0.3333329859851446    0.3129331344746015     N2
    0.3333329854322145    0.6666669831836742    0.6870668655253985     O1
    0.6666669847440475    0.3333329859851446    0.4129816109446974     S1
