Zr-Zr-N-O-Br
   1.000
    3.3369802918055353    0.0000000000000000    0.0000000000000000
   -1.6684901459027677    2.8899097046254822    0.0000000000000000
    0.0000000000000000    0.0000000000000000   23.5647140854625725
   Br   N    O    Zr
    1    1    1    2
Direct
    0.6666669847440474    0.3333329859851446    0.3819269763833983    Br1
    0.0000000000000000    0.0000000000000000    0.5230710817606858     N1
    0.3333329854322145    0.6666669831836742    0.6180730236166017     O1
    0.3333329854322145    0.6666669831836742    0.4667690382966553    Zr1
    0.6666669847440474    0.3333329859851446    0.5772736122089036    Zr2
