Ti-Ti-C-OCl-OH
   1.000
    3.0749615568176378    0.0000000000000000    0.0000000000000000
   -1.5374807784088189    2.6629948238664034    0.0000000000000000
    0.0000000000000000    0.0000000000000000   28.2711385664156900
   C    Cl   H    O    Ti
    1    1    1    2    2
Direct
    0.0000000000000000    0.0000000000000000    0.4382952962011193     C1
    0.3333329854322145    0.6666669831836742    0.6816541371739648    Cl1
    0.6666669847440475    0.3333329859851446    0.3183458628260351     H1
    0.3333329854322145    0.6666669831836742    0.5173724333820034     O1
    0.6666669847440475    0.3333329859851446    0.3531933089725213     O2
    0.3333329854322145    0.6666669831836742    0.3977178312318815    Ti1
    0.6666669847440475    0.3333329859851446    0.4856904139050673    Ti2
