 La-La-C-Cl-Cl                          
   1.0000000000000000     
     4.0197599300803830   -0.0000000000000001    0.0000000000000003
    -2.0098799650401915    3.4812142165472975    0.0000000000000004
     0.0000000000000038    0.0000000000000071   21.5718998277906024
   C    Cl   La
     1     2     2
Direct
  0.0000000000000000  0.0000000000000000  0.5000000267999951
  0.3333329854322145  0.6666669831836742  0.6505423482069228
  0.6666669847440474  0.3333329859851446  0.3494576517930842
  0.3333329854322145  0.6666669831836742  0.4319383113703855
  0.6666669847440474  0.3333329859851446  0.5680616882296075

  0.00000000E+00  0.00000000E+00  0.00000000E+00
  0.00000000E+00  0.00000000E+00  0.00000000E+00
  0.00000000E+00  0.00000000E+00  0.00000000E+00
  0.00000000E+00  0.00000000E+00  0.00000000E+00
  0.00000000E+00  0.00000000E+00  0.00000000E+00
