Ti-Ti-N-NO-O
   1.000
    3.1079189885507796    0.0000000000000000    0.0000000000000000
   -1.5539594942753898    2.6915367970178186    0.0000000000000000
    0.0000000000000000    0.0000000000000000   23.6881830162100009
   N    O    Ti
    2    2    2
Direct
    0.0000000000000000    0.0000000000000000    0.4681147717582823     N1
    0.3333329854322144    0.6666669831836742    0.5643704419406236     N2
    0.3333329854322144    0.6666669831836742    0.6200637257048701     O1
    0.6666669847440474    0.3333329859851446    0.3799362742951299     O2
    0.3333329854322144    0.6666669831836742    0.4170200021878757    Ti1
    0.6666669847440474    0.3333329859851446    0.5242618433454190    Ti2
