Y-Y-N-SCN-OH
   1.000
    3.6220655883261728    0.0000000000000000    0.0000000000000000
   -1.8110327941630864    3.1368008136722842    0.0000000000000000
    0.0000000000000000    0.0000000000000000   27.5041040820384914
   C    H    N    O    S    Y 
    1    1    2    1    1    2
Direct
    0.3333329854322146    0.6666669831836743    0.6295094015512578     C1
    0.6666669847440474    0.3333329859851447    0.3272238925927217     H1
    0.0000000000000000    0.0000000000000000    0.4550581564978597     N1
    0.3333329854322146    0.6666669831836743    0.6727761074072783     N2
    0.6666669847440474    0.3333329859851447    0.3631143790406043     O1
    0.3333329854322146    0.6666669831836743    0.5685096097841966     S1
    0.3333329854322146    0.6666669831836743    0.4092574687682362     Y1
    0.6666669847440474    0.3333329859851447    0.5049775292215756     Y2
