Hf-Hf-N-O-Cl
   1.000
    3.2465023182514048    0.0000000000000000    0.0000000000000000
   -1.6232511591257024    2.8115534810446641    0.0000000000000000
    0.0000000000000000    0.0000000000000000   23.3673379136368915
   Cl   Hf   N    O 
    1    2    1    1
Direct
    0.6666669847440474    0.3333329859851446    0.3851529871850619    Cl1
    0.3333329854322146    0.6666669831836742    0.4630927888282798    Hf1
    0.6666669847440474    0.3333329859851446    0.5733681387076414    Hf2
    0.0000000000000000    0.0000000000000000    0.5197254616494337     N1
    0.3333329854322146    0.6666669831836742    0.6148470128149381     O1
