Zr-Zr-N-NCO-OCN
   1.000
    3.3832357791287091    0.0000000000000000    0.0000000000000000
   -1.6916178895643545    2.9299681317188315    0.0000000000000000
    0.0000000000000000    0.0000000000000000   28.0893578487951210
   C    N    O    Zr
    2    3    2    2
Direct
    0.3333329854322146    0.6666669831836743    0.6367207305794365     C1
    0.6666669847440473    0.3333329859851447    0.3627004479481322     C2
    0.0000000000000000    0.0000000000000000    0.4996693781758244     N1
    0.3333329854322146    0.6666669831836743    0.5922702958009483     N2
    0.6666669847440473    0.3333329859851447    0.3204060430447345     N3
    0.3333329854322146    0.6666669831836743    0.6795939569552656     O1
    0.6666669847440473    0.3333329859851447    0.4102706063850191     O2
    0.3333329854322146    0.6666669831836743    0.4592205126923679    Zr1
    0.6666669847440473    0.3333329859851447    0.5412745152837165    Zr2
