Hf-Hf-N-OCl-F
   1.000
    3.2625869296776751    0.0000000000000000    0.0000000000000000
   -1.6312934648388375    2.8254831631575348    0.0000000000000000
    0.0000000000000000    0.0000000000000000   26.3149199180711229
   Cl   F    Hf   N    O 
    1    1    2    1    1
Direct
    0.3333329854322144    0.6666669831836742    0.6579886988818282    Cl1
    0.6666669847440474    0.3333329859851446    0.3420113011181718     F1
    0.3333329854322144    0.6666669831836742    0.3929273860526006    Hf1
    0.6666669847440474    0.3333329859851446    0.4894891358342720    Hf2
    0.0000000000000000    0.0000000000000000    0.4393858329899525     N1
    0.3333329854322144    0.6666669831836742    0.5241827675576627     O1
