Hf-Hf-C-F-Cl
   1.000
    3.3728726273910459    0.0000000000000000    0.0000000000000000
   -1.6864363136955229    2.9209933790464340    0.0000000000000000
    0.0000000000000000    0.0000000000000000   23.4571736217820721
   C    Cl   F    Hf
    1    1    1    2
Direct
    0.0000000000000000    0.0000000000000000    0.5118260879833691     C1
    0.6666669847440474    0.3333329859851447    0.3836779377223307    Cl1
    0.3333329854322146    0.6666669831836743    0.6163220622776693     F1
    0.3333329854322146    0.6666669831836743    0.4602827316324572    Hf1
    0.6666669847440474    0.3333329859851447    0.5604274454838662    Hf2
