 Y-Y-C-F-Cl                             
   1.0000000000000000     
     3.6424897962027232   -0.0000000000000001   -0.0000000000000000
    -1.8212448981013614    3.1544886965538561    0.0000000000000000
     0.0000000000000015    0.0000000000000027   26.2719277246206389
   C    Cl   F    Y 
     1     1     1     2
Direct
 -0.0000000000000000 -0.0000000000000000  0.5119730682168853
  0.6666669847440474  0.3333329859851446  0.3928502058515579
  0.3333329854322145  0.6666669831836742  0.6072116334742019
  0.3333329854322145  0.6666669831836742  0.4606084447355976
  0.6666669847440474  0.3333329859851446  0.5640070001650176

  0.00000000E+00  0.00000000E+00  0.00000000E+00
  0.00000000E+00  0.00000000E+00  0.00000000E+00
  0.00000000E+00  0.00000000E+00  0.00000000E+00
  0.00000000E+00  0.00000000E+00  0.00000000E+00
  0.00000000E+00  0.00000000E+00  0.00000000E+00
