Zr-Zr-C-NO-Cl
   1.000
    3.4518672600862028    0.0000000000000000    0.0000000000000000
   -1.7259336300431014    2.9894047377208337    0.0000000000000000
    0.0000000000000000    0.0000000000000000   24.6706097563205162
   C    Cl   N    O    Zr
    1    1    1    1    2
Direct
    0.0000000000000000    0.0000000000000000    0.4834137749921757     C1
    0.6666669847440474    0.3333329859851446    0.3648065487191388    Cl1
    0.3333329854322145    0.6666669831836742    0.5812408282303169     N1
    0.3333329854322145    0.6666669831836742    0.6351934512808612     O1
    0.3333329854322145    0.6666669831836742    0.4380357793088499    Zr1
    0.6666669847440474    0.3333329859851446    0.5425754721601662    Zr2
