Y-Y-C-CN-OCl
   1.000
    3.8085653885608490    0.0000000000000000    0.0000000000000000
   -1.9042826942804245    3.2983143784715794    0.0000000000000000
    0.0000000000000000    0.0000000000000000   25.5263877929537202
   C    Cl   N    O    Y 
    2    1    1    1    2
Direct
    0.0000000000000000    0.0000000000000000    0.4870595340539058     C1
    0.3333329854322145    0.6666669831836742    0.6004209171935522     C2
    0.6666669847440474    0.3333329859851446    0.3525763250562365    Cl1
    0.3333329854322145    0.6666669831836742    0.6474236749437634     N1
    0.6666669847440474    0.3333329859851446    0.4621931409975116     O1
    0.3333329854322145    0.6666669831836742    0.4252611512236839     Y1
    0.6666669847440474    0.3333329859851446    0.5435335315533772     Y2
