Zr-Zr-C-CN-NO
   1.000
    3.4229209160779295    0.0000000000000000    0.0000000000000000
   -1.7114604580389647    2.9643364684422933    0.0000000000000000
    0.0000000000000000    0.0000000000000000   25.6216742022944111
   C    N    O    Zr
    2    2    1    2
Direct
    0.0000000000000000    0.0000000000000000    0.4984117523631266     C1
    0.3333329854322145    0.6666669831836742    0.6017080344813237     C2
    0.3333329854322145    0.6666669831836742    0.6487348980811702     N1
    0.6666669847440473    0.3333329859851446    0.4029493861043507     N2
    0.6666669847440473    0.3333329859851446    0.3512651019188298     O1
    0.3333329854322145    0.6666669831836742    0.4420494194352977    Zr1
    0.6666669847440473    0.3333329859851446    0.5437980708248948    Zr2
