Ti-Ti-N-Cl-H
   1.000
    3.1552266030513065    0.0000000000000000    0.0000000000000000
   -1.5776133015256533    2.7325063929341495    0.0000000000000000
    0.0000000000000000    0.0000000000000000   22.7733493418173509
   Cl   H    N    Ti
    1    1    1    2
Direct
    0.3333329854322145    0.6666669831836742    0.6048012145726043    Cl1
    0.6666669847440474    0.3333329859851446    0.3951987854273958     H1
    0.0000000000000000    0.0000000000000000    0.4839265985077802     N1
    0.3333329854322145    0.6666669831836742    0.4378669955253816    Ti1
    0.6666669847440474    0.3333329859851446    0.5298809550016841    Ti2
