Sc-Sc-N-NCS-OH
   1.000
    3.3013250292183920    0.0000000000000000    0.0000000000000000
   -1.6506625146091960    2.8590313414038993    0.0000000000000000
    0.0000000000000000    0.0000000000000000   26.7279573263087080
   C    H    N    O    S    Sc
    1    1    2    1    1    2
Direct
    0.3333329854322145    0.6666669831836742    0.6052239307667863     C1
    0.6666669847440475    0.3333329859851446    0.3367260688919603     H1
    0.0000000000000000    0.0000000000000000    0.4635140616750362     N1
    0.3333329854322145    0.6666669831836742    0.5583324151859727     N2
    0.6666669847440475    0.3333329859851446    0.3736030447513069     O1
    0.3333329854322145    0.6666669831836742    0.6632739311080397     S1
    0.3333329854322145    0.6666669831836742    0.4189182854829455    Sc1
    0.6666669847440475    0.3333329859851446    0.5107154094752583    Sc2
