Ti-Ti-N-NCO-NCS
   1.000
    3.2024113369217742    0.0000000000000000    0.0000000000000000
   -1.6012056684608871    2.7733695711396869    0.0000000000000000
    0.0000000000000000    0.0000000000000000   27.9681255186864419
   C    N    O    S    Ti
    2    3    1    1    2
Direct
    0.3333329854322145    0.6666669831836742    0.6351387289604959     C1
    0.6666669847440474    0.3333329859851446    0.3772029729452060     C2
    0.0000000000000000    0.0000000000000000    0.5060378771365361     N1
    0.3333329854322145    0.6666669831836742    0.5905839338313477     N2
    0.6666669847440474    0.3333329859851446    0.4220072833009306     N3
    0.3333329854322145    0.6666669831836742    0.6782051055231857     O1
    0.6666669847440474    0.3333329859851446    0.3217948944768143     S1
    0.3333329854322145    0.6666669831836742    0.4678811529304605    Ti1
    0.6666669847440474    0.3333329859851446    0.5427729700135998    Ti2
