Hf-Hf-C-SCN-OH
   1.000
    3.4083013498330899    0.0000000000000000    0.0000000000000000
   -1.7041506749165449    2.9516755526801082    0.0000000000000000
    0.0000000000000000    0.0000000000000000   27.2251475000818601
   C    H    Hf   N    O    S 
    2    1    2    1    1    1
Direct
    0.0000000000000000    0.0000000000000000    0.4564478763682643     C1
    0.3333329854322145    0.6666669831836741    0.6257096780680480     C2
    0.6666669847440474    0.3333329859851446    0.3305767213923428     H1
    0.3333329854322145    0.6666669831836741    0.4152842370289150    Hf1
    0.6666669847440474    0.3333329859851446    0.5022085517357647    Hf2
    0.3333329854322145    0.6666669831836741    0.6694232786076572     N1
    0.6666669847440474    0.3333329859851446    0.3668786431104136     O1
    0.3333329854322145    0.6666669831836741    0.5636863134186169     S1
