Y-Y-N-PO-Cl
   1.000
    3.5698533655547053    0.0000000000000000    0.0000000000000000
   -1.7849266827773527    3.0915837023669139    0.0000000000000000
    0.0000000000000000    0.0000000000000000   25.9832315688327995
   Cl   N    O    P    Y 
    1    1    1    1    2
Direct
    0.6666669847440474    0.3333329859851446    0.3463772385724187    Cl1
    0.0000000000000000    0.0000000000000000    0.4646281877925512     N1
    0.3333329854322145    0.6666669831836742    0.6536227614275814     O1
    0.3333329854322145    0.6666669831836742    0.5960078229979560     P1
    0.3333329854322145    0.6666669831836742    0.4155358629091326     Y1
    0.6666669847440474    0.3333329859851446    0.5163489848545799     Y2
