Hf-Hf-C-NCO-F
   1.000
    3.3455950900796787    0.0000000000000000    0.0000000000000000
   -1.6727975450398394    2.8973703387823844    0.0000000000000000
    0.0000000000000000    0.0000000000000000   25.5838853873310654
   C    F    Hf   N    O 
    2    1    2    1    1
Direct
    0.0000000000000000    0.0000000000000000    0.4486491020324086     C1
    0.3333329854322145    0.6666669831836742    0.6011033465529101     C2
    0.6666669847440474    0.3333329859851445    0.3517839399193340     F1
    0.3333329854322145    0.6666669831836742    0.4033263269600528    Hf1
    0.6666669847440474    0.3333329859851445    0.4963528366072014    Hf2
    0.3333329854322145    0.6666669831836742    0.5522580781339822     N1
    0.3333329854322145    0.6666669831836742    0.6482160600806659     O1
