Hf-Hf-C-Br-H
   1.000
    3.3650790858302102    0.0000000000000000    0.0000000000000000
   -1.6825395429151051    2.9142439740672303    0.0000000000000000
    0.0000000000000000    0.0000000000000000   23.3417136507584253
   Br   C    H    Hf
    1    1    1    2
Direct
    0.3333329854322146    0.6666669831836742    0.6144241963268378    Br1
    0.0000000000000000    0.0000000000000000    0.4799448381959756     C1
    0.6666669847440474    0.3333329859851446    0.3855758036731622     H1
    0.3333329854322146    0.6666669831836742    0.4273837167906298    Hf1
    0.6666669847440474    0.3333329859851446    0.5300199062567910    Hf2
