Zr-Zr-N-OCl-O
   1.000
    3.2783964279951574    0.0000000000000000    0.0000000000000000
   -1.6391982139975787    2.8391745903205825    0.0000000000000000
    0.0000000000000000    0.0000000000000000   25.9761426321093651
   Cl   N    O    Zr
    1    1    2    2
Direct
    0.3333329854322145    0.6666669831836742    0.6535282344471341    Cl1
    0.0000000000000000    0.0000000000000000    0.4367236629291774     N1
    0.3333329854322145    0.6666669831836742    0.5253171708249886     O1
    0.6666669847440473    0.3333329859851446    0.3464717655528659     O2
    0.3333329854322145    0.6666669831836742    0.3842103592446333    Zr1
    0.6666669847440473    0.3333329859851446    0.4898989502439553    Zr2
