Sc-Sc-N-PO-PO
   1.000
    3.2551483720185170    0.0000000000000000    0.0000000000000000
   -1.6275741860092585    2.8190411832320996    0.0000000000000000
    0.0000000000000000    0.0000000000000000   27.3619616758720277
   N    O    P    Sc
    1    2    2    2
Direct
    0.0000000000000000    0.0000000000000000    0.5000000322206721     N1
    0.3333329854322145    0.6666669831836742    0.6710762149800004     O1
    0.6666669847440474    0.3333329859851446    0.3289237850199996     O2
    0.3333329854322145    0.6666669831836742    0.6164892806166220     P1
    0.6666669847440474    0.3333329859851446    0.3835107193833779     P2
    0.3333329854322145    0.6666669831836742    0.4561265677569427    Sc1
    0.6666669847440474    0.3333329859851446    0.5438734317621436    Sc2
