Ti-Ti-C-PO-F
   1.000
    3.2053046832112071    0.0000000000000000    0.0000000000000000
   -1.6026523416056035    2.7758752825296229    0.0000000000000000
    0.0000000000000000    0.0000000000000000   24.7738261937751076
   C    F    O    P    Ti
    1    1    1    1    2
Direct
    0.0000000000000000    0.0000000000000000    0.4560651513944731     C1
    0.6666669847440474    0.3333329859851446    0.3632866368563376     F1
    0.3333329854322145    0.6666669831836742    0.6367133631436626     O1
    0.3333329854322145    0.6666669831836742    0.5765306161072327     P1
    0.3333329854322145    0.6666669831836742    0.4113539176198140    Ti1
    0.6666669847440474    0.3333329859851446    0.5017178776789160    Ti2
