Zr-Zr-C-F-Cl
   1.000
    3.4120680207921943    0.0000000000000000    0.0000000000000000
   -1.7060340103960971    2.9549375854400197    0.0000000000000000
    0.0000000000000000    0.0000000000000000   23.5370398281326452
   C    Cl   F    Zr
    1    1    1    2
Direct
    0.0000000000000000    0.0000000000000000    0.5118971822275227     C1
    0.6666669847440475    0.3333329859851446    0.3823760364819857    Cl1
    0.3333329854322145    0.6666669831836742    0.6176239635180143     F1
    0.3333329854322145    0.6666669831836742    0.4591541888714140    Zr1
    0.6666669847440475    0.3333329859851446    0.5622723431518906    Zr2
