Zr-Zr-C-PO-H
   1.000
    3.3125597617560376    0.0000000000000000    0.0000000000000000
   -1.6562798808780188    2.8687609052348066    0.0000000000000000
    0.0000000000000000    0.0000000000000000   25.0836056730780896
   C    H    O    P    Zr
    1    1    1    1    2
Direct
    0.0000000000000000    0.0000000000000000    0.4501003909658599     C1
    0.6666669847440474    0.3333329859851446    0.3588000910754064     H1
    0.3333329854322145    0.6666669831836742    0.6411999089245934     O1
    0.3333329854322145    0.6666669831836742    0.5816979399947457     P1
    0.3333329854322145    0.6666669831836742    0.3990686647708399    Zr1
    0.6666669847440474    0.3333329859851446    0.5015749641507428    Zr2
