Sc-Sc-C-PO-H
   1.000
    3.3218626480635867    0.0000000000000000    0.0000000000000000
   -1.6609313240317933    2.8768174411010459    0.0000000000000000
    0.0000000000000000    0.0000000000000000   25.0119630964999295
   C    H    O    P    Sc
    1    1    1    1    2
Direct
    0.0000000000000000    0.0000000000000000    0.4502916624884742     C1
    0.6666669847440474    0.3333329859851445    0.3598278138056035     H1
    0.3333329854322145    0.6666669831836741    0.6401721861943965     O1
    0.3333329854322145    0.6666669831836741    0.5804209966087253     P1
    0.3333329854322145    0.6666669831836741    0.3996064825143063    Sc1
    0.6666669847440474    0.3333329859851445    0.4986617579490595    Sc2
