Y-Y-N-OCN-OCN
   1.000
    3.5531369470451528    0.0000000000000000    0.0000000000000000
   -1.7765684735225764    3.0771068592638029    0.0000000000000000
    0.0000000000000000    0.0000000000000000   28.3135787778009771
   C    N    O    Y 
    2    3    2    2
Direct
    0.3333329854322146    0.6666669831836742    0.6401443557949584     C1
    0.6666669847440475    0.3333329859851446    0.3598556438149830     C2
    0.0000000000000000    0.0000000000000000    0.5000000261339311     N1
    0.3333329854322146    0.6666669831836742    0.6821313168981530     N2
    0.6666669847440475    0.3333329859851446    0.3178686831018470     N3
    0.3333329854322146    0.6666669831836742    0.5929514195181530     O1
    0.6666669847440475    0.3333329859851446    0.4070485804818468     O2
    0.3333329854322146    0.6666669831836742    0.4535099388075926     Y1
    0.6666669847440475    0.3333329859851446    0.5464900608023420     Y2
