Ti-Ti-C-CN-NO
   1.000
    3.1823412656056274    0.0000000000000000    0.0000000000000000
   -1.5911706328028137    2.7559883795255411    0.0000000000000000
    0.0000000000000000    0.0000000000000000   25.2662943323771039
   C    N    O    Ti
    2    2    1    2
Direct
    0.0000000000000000    0.0000000000000000    0.4984509003769081     C1
    0.3333329854322145    0.6666669831836742    0.5961718392056681     C2
    0.3333329854322145    0.6666669831836742    0.6437942231810745     N1
    0.6666669847440474    0.3333329859851446    0.4080085169957120     N2
    0.6666669847440474    0.3333329859851446    0.3562057768189255     O1
    0.3333329854322145    0.6666669831836742    0.4460950414447840    Ti1
    0.6666669847440474    0.3333329859851446    0.5404700098944752    Ti2
