 Sc-Sc-C-F-F                            
   1.0000000000000000     
     3.2858689849956422   -0.0000000000000001    0.0000000000000000
    -1.6429344924978206    2.8456460145107054   -0.0000000000000000
     0.0000000000000017    0.0000000000000039   32.2840597251281025
   C    F    Sc
     1     2     2
Direct
  0.0000000000000000  0.0000000000000000  0.5000000267999951
  0.3333329854322145  0.6666669831836742  0.5747511571802751
  0.6666669847440474  0.3333329859851446  0.4252488428197247
  0.3333329854322145  0.6666669831836742  0.4607194014088428
  0.6666669847440474  0.3333329859851446  0.5392805981911500

  0.00000000E+00  0.00000000E+00  0.00000000E+00
  0.00000000E+00  0.00000000E+00  0.00000000E+00
  0.00000000E+00  0.00000000E+00  0.00000000E+00
  0.00000000E+00  0.00000000E+00  0.00000000E+00
  0.00000000E+00  0.00000000E+00  0.00000000E+00
