Ti-Ti-N-NCO-OCN
   1.000
    3.1751405828212316    0.0000000000000000    0.0000000000000000
   -1.5875702914106158    2.7497524053143914    0.0000000000000000
    0.0000000000000000    0.0000000000000000   27.6678407274198541
   C    N    O    Ti
    2    3    2    2
Direct
    0.3333329854322145    0.6666669831836741    0.6312191202641619     C1
    0.6666669847440474    0.3333329859851445    0.3682081627151355     C2
    0.0000000000000000    0.0000000000000000    0.5000027298681440     N1
    0.3333329854322145    0.6666669831836741    0.5861397193144873     N2
    0.6666669847440474    0.3333329859851445    0.3252874009456281     N3
    0.3333329854322145    0.6666669831836741    0.6747125990543719     O1
    0.6666669847440474    0.3333329859851445    0.4164929177342213     O2
    0.3333329854322145    0.6666669831836741    0.4628411619630159    Ti1
    0.6666669847440474    0.3333329859851445    0.5380179770866598    Ti2
