Zr-Zr-N-CN-Cl
   1.000
    3.4194234295497954    0.0000000000000000    0.0000000000000000
   -1.7097117147748977    2.9613075562863438    0.0000000000000000
    0.0000000000000000    0.0000000000000000   24.7916412126049401
   C    Cl   N    Zr
    1    1    2    2
Direct
    0.3333329854322145    0.6666669831836741    0.5883760248168936     C1
    0.6666669847440475    0.3333329859851446    0.3630255828090995    Cl1
    0.0000000000000000    0.0000000000000000    0.4817275134776003     N1
    0.3333329854322145    0.6666669831836741    0.6369744171909004     N2
    0.3333329854322145    0.6666669831836741    0.4355022448770540    Zr1
    0.6666669847440475    0.3333329859851446    0.5285944206071134    Zr2
