Ti-Ti-N-CN-Cl
   1.000
    3.2052313303796636    0.0000000000000000    0.0000000000000000
   -1.6026156651898318    2.7758117571189644    0.0000000000000000
    0.0000000000000000    0.0000000000000000   24.3816785060861072
   C    Cl   N    Ti
    1    1    2    2
Direct
    0.3333329854322145    0.6666669831836742    0.5815568556116092     C1
    0.6666669847440474    0.3333329859851446    0.3691296314055424    Cl1
    0.0000000000000000    0.0000000000000000    0.4806672663740697     N1
    0.3333329854322145    0.6666669831836742    0.6308703685944577     N2
    0.3333329854322145    0.6666669831836742    0.4384328091639120    Ti1
    0.6666669847440474    0.3333329859851446    0.5237389119406711    Ti2
