Ti-Ti-C-CN-OH
   1.000
    3.1428139112613676    0.0000000000000000    0.0000000000000000
   -1.5714069556306838    2.7217566865223954    0.0000000000000000
    0.0000000000000000    0.0000000000000000   25.1197469590781530
   C    H    N    O    Ti
    2    1    1    1    2
Direct
    0.0000000000000000    0.0000000000000000    0.4920823604995124     C1
    0.3333329854322146    0.6666669831836742    0.5938136196952529     C2
    0.6666669847440473    0.3333329859851446    0.3582838638725795     H1
    0.3333329854322146    0.6666669831836742    0.6417161361274205     N1
    0.6666669847440473    0.3333329859851446    0.3975130606654100     O1
    0.3333329854322146    0.6666669831836742    0.4473571209087576    Ti1
    0.6666669847440473    0.3333329859851446    0.5377839283414212    Ti2
