Sc-Sc-N-OCl-OCN
   1.000
    3.2792353984420206    0.0000000000000000    0.0000000000000000
   -1.6396176992210103    2.8399011600406641    0.0000000000000000
    0.0000000000000000    0.0000000000000000   29.1279094928007432
   C    Cl   N    O    Sc
    1    1    2    2    2
Direct
    0.6666669847440475    0.3333329859851446    0.3498196016248751     C1
    0.3333329854322145    0.6666669831836742    0.6910179907615944    Cl1
    0.0000000000000000    0.0000000000000000    0.4749662973752758     N1
    0.6666669847440475    0.3333329859851446    0.3089820092384056     N2
    0.3333329854322145    0.6666669831836742    0.5539172581532624     O1
    0.6666669847440475    0.3333329859851446    0.3955431349740915     O2
    0.3333329854322145    0.6666669831836742    0.4404538456946278    Sc1
    0.6666669847440475    0.3333329859851446    0.5308621426935055    Sc2
