Hf-Hf-C-NCO-OCN
   1.000
    3.3345034431564438    0.0000000000000000    0.0000000000000000
   -1.6672517215782219    2.8877646907699175    0.0000000000000000
    0.0000000000000000    0.0000000000000000   28.1656621190668268
   C    Hf   N    O 
    3    2    2    2
Direct
    0.0000000000000000    0.0000000000000000    0.4996837914814254     C1
    0.3333329854322145    0.6666669831836742    0.6377085334656685     C2
    0.6666669847440473    0.3333329859851446    0.3616992478756315     C3
    0.3333329854322145    0.6666669831836742    0.4582346651028349    Hf1
    0.6666669847440473    0.3333329859851446    0.5425623925933114    Hf2
    0.3333329854322145    0.6666669831836742    0.5933222504483913     N1
    0.6666669847440473    0.3333329859851446    0.3195380233545947     N2
    0.3333329854322145    0.6666669831836742    0.6804619766454052     O1
    0.6666669847440473    0.3333329859851446    0.4092594809880040     O2
