Ti-Ti-C-NCO-NCS
   1.000
    3.2010404015554563    0.0000000000000000    0.0000000000000000
   -1.6005202007777282    2.7721823062780189    0.0000000000000000
    0.0000000000000000    0.0000000000000000   28.1108515008989599
   C    N    O    S    Ti
    3    2    1    1    2
Direct
    0.0000000000000000    0.0000000000000000    0.5058841690619286     C1
    0.3333329854322144    0.6666669831836741    0.6369812357102935     C2
    0.6666669847440472    0.3333329859851445    0.3753143108310663     C3
    0.3333329854322144    0.6666669831836741    0.5926433573945016     N1
    0.6666669847440472    0.3333329859851445    0.4198908538434454     N2
    0.3333329854322144    0.6666669831836741    0.6798389404991098     O1
    0.6666669847440472    0.3333329859851445    0.3201610595008902     S1
    0.3333329854322144    0.6666669831836741    0.4653332137525341    Ti1
    0.6666669847440472    0.3333329859851445    0.5450496717247502    Ti2
