Zr-Zr-N-CN-NO
   1.000
    3.3396337424132838    0.0000000000000000    0.0000000000000000
   -1.6698168712066419    2.8922076602655831    0.0000000000000000
    0.0000000000000000    0.0000000000000000   25.7492532551302453
   C    N    O    Zr
    1    3    1    2
Direct
    0.3333329854322145    0.6666669831836742    0.6035999870154960     C1
    0.0000000000000000    0.0000000000000000    0.4978376409482451     N1
    0.3333329854322145    0.6666669831836742    0.6504753007465625     N2
    0.6666669847440473    0.3333329859851446    0.4006448742418790     N3
    0.6666669847440473    0.3333329859851446    0.3495246992534377     O1
    0.3333329854322145    0.6666669831836742    0.4479612891083799    Zr1
    0.6666669847440473    0.3333329859851446    0.5456625641504199    Zr2
