Sc-Sc-C-NO-Cl
   1.000
    3.4176627100924435    0.0000000000000000    0.0000000000000000
   -1.7088313550462217    2.9597827285036593    0.0000000000000000
    0.0000000000000000    0.0000000000000000   24.7004693635524255
   C    Cl   N    O    Sc
    1    1    1    1    2
Direct
    0.0000000000000000    0.0000000000000000    0.4822648970916040     C1
    0.6666669847440473    0.3333329859851446    0.3643655457527556    Cl1
    0.3333329854322145    0.6666669831836742    0.5834479081074067     N1
    0.3333329854322145    0.6666669831836742    0.6356344542472445     O1
    0.3333329854322145    0.6666669831836742    0.4325452762001718    Sc1
    0.6666669847440473    0.3333329859851446    0.5335545561222585    Sc2
