Y-Y-N-SCN-PO
   1.000
    3.6348225166276338    0.0000000000000000    0.0000000000000000
   -1.8174112583138169    3.1478486376734720    0.0000000000000000
    0.0000000000000000    0.0000000000000000   28.7581637632366807
   C    N    O    P    S    Y 
    1    2    1    1    1    2
Direct
    0.3333329854322145    0.6666669831836742    0.6456532970761950     C1
    0.0000000000000000    0.0000000000000000    0.4812661284886683     N1
    0.3333329854322145    0.6666669831836742    0.6870453873864766     N2
    0.6666669847440474    0.3333329859851446    0.3129546126135234     O1
    0.6666669847440474    0.3333329859851446    0.3650165828234841     P1
    0.3333329854322145    0.6666669831836742    0.5873703802027258     S1
    0.3333329854322145    0.6666669831836742    0.4365750904475396     Y1
    0.6666669847440474    0.3333329859851446    0.5264568939866789     Y2
