Sc-Sc-N-PO-Br
   1.000
    3.3634933419489910    0.0000000000000000    0.0000000000000000
   -1.6817466709744955    2.9128706795677757    0.0000000000000000
    0.0000000000000000    0.0000000000000000   25.6852944013853630
   Br   N    O    P    Sc
    1    1    1    1    2
Direct
    0.6666669847440475    0.3333329859851446    0.3503950493755904    Br1
    0.0000000000000000    0.0000000000000000    0.4686912609042527     N1
    0.3333329854322146    0.6666669831836742    0.6496049506244097     O1
    0.3333329854322146    0.6666669831836742    0.5914129092688548     P1
    0.3333329854322146    0.6666669831836742    0.4234567970024934    Sc1
    0.6666669847440475    0.3333329859851446    0.5153705797598372    Sc2
