Hf-Hf-C-CN-Cl
   1.000
    3.3679636872557110    0.0000000000000000    0.0000000000000000
   -1.6839818436278555    2.9167421121802586    0.0000000000000000
    0.0000000000000000    0.0000000000000000   24.8548480666512859
   C    Cl   Hf   N 
    2    1    2    1
Direct
    0.0000000000000000    0.0000000000000000    0.4812744050932722     C1
    0.3333329854322145    0.6666669831836742    0.5893421860154557     C2
    0.6666669847440475    0.3333329859851447    0.3621023945053057    Cl1
    0.3333329854322145    0.6666669831836742    0.4340417811523876    Hf1
    0.6666669847440475    0.3333329859851447    0.5307945260769162    Hf2
    0.3333329854322145    0.6666669831836742    0.6378976054946943     N1
