Zr-Zr-C-NO-PO
   1.000
    3.3872124075551269    0.0000000000000000    0.0000000000000000
   -1.6936062037775634    2.9334119929530140    0.0000000000000000
    0.0000000000000000    0.0000000000000000   26.4683948048623989
   C    N    O    P    Zr
    1    1    2    1    2
Direct
    0.0000000000000000    0.0000000000000000    0.5157049211836862     C1
    0.3333329854322144    0.6666669831836741    0.6101103480789921     N1
    0.3333329854322144    0.6666669831836741    0.6599718242699536     O1
    0.6666669847440474    0.3333329859851446    0.3400281757300464     O2
    0.6666669847440474    0.3333329859851446    0.3964346195922356     P1
    0.3333329854322144    0.6666669831836741    0.4713544698260374    Zr1
    0.6666669847440474    0.3333329859851446    0.5705867787920085    Zr2
