Sc-Sc-N-NO-Br
   1.000
    3.3934070134313243    0.0000000000000000    0.0000000000000000
   -1.6967035067156622    2.9387766790003531    0.0000000000000000
    0.0000000000000000    0.0000000000000000   24.6997899387614837
   Br   N    O    Sc
    1    2    1    2
Direct
    0.6666669847440474    0.3333329859851446    0.3643755684689554    Br1
    0.0000000000000000    0.0000000000000000    0.4826418086705071     N1
    0.3333329854322144    0.6666669831836741    0.5818656474967105     N2
    0.3333329854322144    0.6666669831836741    0.6356244315310446     O1
    0.3333329854322144    0.6666669831836741    0.4410049279620399    Sc1
    0.6666669847440474    0.3333329859851446    0.5441157486457553    Sc2
