Y-Y-C-O-Br
   1.000
    3.7522871448767781    0.0000000000000000    0.0000000000000000
   -1.8761435724383890    3.2495759897818912    0.0000000000000000
    0.0000000000000000    0.0000000000000000   23.3254164422119246
   Br   C    O    Y 
    1    1    1    2
Direct
    0.6666669847440474    0.3333329859851447    0.3858452011906091    Br1
    0.0000000000000000    0.0000000000000000    0.5177029833308202     C1
    0.3333329854322145    0.6666669831836742    0.6141547988093909     O1
    0.3333329854322145    0.6666669831836742    0.4706073533149852     Y1
    0.6666669847440474    0.3333329859851447    0.5889844995715287     Y2
