Hf-Hf-N-NCS-O
   1.000
    3.2615305969393131    0.0000000000000000    0.0000000000000000
   -1.6307652984696566    2.8245683521683462    0.0000000000000000
    0.0000000000000000    0.0000000000000000   25.6655298504435159
   C    Hf   N    O    S 
    1    2    2    1    1
Direct
    0.3333329854322144    0.6666669831836742    0.5890640075883500     C1
    0.3333329854322144    0.6666669831836742    0.3879555661255067    Hf1
    0.6666669847440474    0.3333329859851447    0.4884974266525703    Hf2
    0.0000000000000000    0.0000000000000000    0.4375848777384743     N1
    0.3333329854322144    0.6666669831836742    0.5395205232619668     N2
    0.6666669847440474    0.3333329859851447    0.3506648821374118     O1
    0.3333329854322144    0.6666669831836742    0.6493351178625881     S1
