Sc-Sc-C-Br-H
   1.000
    3.4218891102545754    0.0000000000000000    0.0000000000000000
   -1.7109445551272877    2.9634428984089487    0.0000000000000000
    0.0000000000000000    0.0000000000000000   23.3173715979297711
   Br   C    H    Sc
    1    1    1    2
Direct
    0.3333329854322145    0.6666669831836743    0.6140216764054545    Br1
    0.0000000000000000    0.0000000000000000    0.4808348894208421     C1
    0.6666669847440473    0.3333329859851446    0.3859783235945455     H1
    0.3333329854322145    0.6666669831836743    0.4278904388397917    Sc1
    0.6666669847440473    0.3333329859851446    0.5336182927468514    Sc2
