Zr-Zr-C-CN-SCN
   1.000
    3.4842812006876316    0.0000000000000000    0.0000000000000000
   -1.7421406003438158    3.0174760337177591    0.0000000000000000
    0.0000000000000000    0.0000000000000000   27.6597329875236468
   C    N    S    Zr
    3    2    1    2
Direct
    0.0000000000000000    0.0000000000000000    0.5349055530108984     C1
    0.3333329854322146    0.6666669831836743    0.6310638409167750     C2
    0.6666669847440475    0.3333329859851446    0.3684366456354311     C3
    0.3333329854322146    0.6666669831836743    0.6746172494123646     N1
    0.6666669847440475    0.3333329859851446    0.3253827505876354     N2
    0.6666669847440475    0.3333329859851446    0.4291812283095999     S1
    0.3333329854322146    0.6666669831836743    0.4902376752620251    Zr1
    0.6666669847440475    0.3333329859851446    0.5783443282077283    Zr2
