Ti-Ti-N-OH-OH
   1.000
    3.1106520706551026    0.0000000000000000    0.0000000000000000
   -1.5553260353275513    2.6939037155208307    0.0000000000000000
    0.0000000000000000    0.0000000000000000   24.6227669633162058
   H    N    O    Ti
    2    1    2    2
Direct
    0.3333329854322145    0.6666669831836741    0.6344846209441655     H1
    0.6666669847440475    0.3333329859851446    0.3655153790558344     H2
    0.0000000000000000    0.0000000000000000    0.5000000392088160     N1
    0.3333329854322145    0.6666669831836741    0.5943345424264499     O1
    0.6666669847440475    0.3333329859851446    0.4056654575735603     O2
    0.3333329854322145    0.6666669831836741    0.4560878900333612    Ti1
    0.6666669847440475    0.3333329859851446    0.5439121093814323    Ti2
