Hf-Hf-C-CN-Br
   1.000
    3.4020712273266303    0.0000000000000000    0.0000000000000000
   -1.7010356136633151    2.9462801083436276    0.0000000000000000
    0.0000000000000000    0.0000000000000000   24.9943488257160737
   Br   C    Hf   N 
    1    2    2    1
Direct
    0.6666669847440474    0.3333329859851446    0.3600813953088516    Br1
    0.0000000000000000    0.0000000000000000    0.4850906981154575     C1
    0.3333329854322146    0.6666669831836742    0.5916329412251411     C2
    0.3333329854322146    0.6666669831836742    0.4383542942147054    Hf1
    0.6666669847440474    0.3333329859851446    0.5338818451772311    Hf2
    0.3333329854322146    0.6666669831836742    0.6399186046911485     N1
