Hf-Hf-N-CN-H
   1.000
    3.2644292372704791    0.0000000000000000    0.0000000000000000
   -1.6322146186352395    2.8270786483327326    0.0000000000000000
    0.0000000000000000    0.0000000000000000   24.0537539972704870
   C    H    Hf   N 
    1    1    2    2
Direct
    0.3333329854322145    0.6666669831836742    0.5755060427998473     C1
    0.6666669847440474    0.3333329859851445    0.3741619707685245     H1
    0.3333329854322145    0.6666669831836742    0.4149438472934829    Hf1
    0.6666669847440474    0.3333329859851445    0.5144915547759081    Hf2
    0.0000000000000000    0.0000000000000000    0.4646650780391393     N1
    0.3333329854322145    0.6666669831836742    0.6258380292314754     N2
