Zr-Zr-C-CN-Cl
   1.000
    3.4235053947230258    0.0000000000000000    0.0000000000000000
   -1.7117526973615129    2.9648426418211029    0.0000000000000000
    0.0000000000000000    0.0000000000000000   24.9398217559293975
   C    Cl   N    Zr
    2    1    1    2
Direct
    0.0000000000000000    0.0000000000000000    0.4814773877840633     C1
    0.3333329854322145    0.6666669831836742    0.5908382760954498     C2
    0.6666669847440475    0.3333329859851446    0.3608686576863874    Cl1
    0.3333329854322145    0.6666669831836742    0.6391313423136127     N1
    0.3333329854322145    0.6666669831836742    0.4329852302630727    Zr1
    0.6666669847440475    0.3333329859851446    0.5315047032223570    Zr2
