Zr-Zr-N-CN-NCS
   1.000
    3.4091730934671332    0.0000000000000000    0.0000000000000000
   -1.7045865467335666    2.9524305048408030    0.0000000000000000
    0.0000000000000000    0.0000000000000000   27.2198252914052077
   C    N    S    Zr
    2    3    1    2
Direct
    0.3333329854322146    0.6666669831836742    0.6251116242750070     C1
    0.6666669847440475    0.3333329859851446    0.3876938822692698     C2
    0.0000000000000000    0.0000000000000000    0.5273915676754628     N1
    0.3333329854322146    0.6666669831836742    0.6693586419585951     N2
    0.6666669847440475    0.3333329859851446    0.4337577056044469     N3
    0.6666669847440475    0.3333329859851446    0.3306413580414050     S1
    0.3333329854322146    0.6666669831836742    0.4847989994596901    Zr1
    0.6666669847440475    0.3333329859851446    0.5702867448084277    Zr2
