Hf-Hf-N-CN-O
   1.000
    3.2415137094138844    0.0000000000000000    0.0000000000000000
   -1.6207568547069422    2.8072332190677858    0.0000000000000000
    0.0000000000000000    0.0000000000000000   24.2176169460273734
   C    Hf   N    O 
    1    2    2    1
Direct
    0.3333329854322145    0.6666669831836742    0.5783697644759018     C1
    0.3333329854322145    0.6666669831836742    0.4114337055146615    Hf1
    0.6666669847440474    0.3333329859851446    0.5185116611379874    Hf2
    0.0000000000000000    0.0000000000000000    0.4640750986609369     N1
    0.3333329854322145    0.6666669831836742    0.6283697103617643     N2
    0.6666669847440474    0.3333329859851446    0.3716302896382357     O1
