Zr-Zr-N-PO-O
   1.000
    3.2678462716434087    0.0000000000000000    0.0000000000000000
   -1.6339231358217043    2.8300378869039839    0.0000000000000000
    0.0000000000000000    0.0000000000000000   25.1230659664322111
   N    O    P    Zr
    1    2    1    2
Direct
    0.0000000000000000    0.0000000000000000    0.4493613382909870     N1
    0.3333329854322145    0.6666669831836742    0.6417634689959733     O1
    0.6666669847440475    0.3333329859851446    0.3582365310040266     O2
    0.3333329854322145    0.6666669831836742    0.5824329872429388     P1
    0.3333329854322145    0.6666669831836742    0.3972951146411259    Zr1
    0.6666669847440475    0.3333329859851446    0.5038658283270809    Zr2
