Hf-Hf-N-NCS-OH
   1.000
    3.3148952058055410    0.0000000000000000    0.0000000000000000
   -1.6574476029027705    2.8707834591019630    0.0000000000000000
    0.0000000000000000    0.0000000000000000   26.7484181477956007
   C    H    Hf   N    O    S 
    1    1    2    2    1    1
Direct
    0.3333329854322145    0.6666669831836741    0.6056255309416511     C1
    0.6666669847440474    0.3333329859851446    0.3364684950815199     H1
    0.3333329854322145    0.6666669831836741    0.4216944293781267    Hf1
    0.6666669847440474    0.3333329859851446    0.5084359004155419    Hf2
    0.0000000000000000    0.0000000000000000    0.4638319275128672     N1
    0.3333329854322145    0.6666669831836741    0.5582862697487714     N2
    0.6666669847440474    0.3333329859851446    0.3736465758813693     O1
    0.3333329854322145    0.6666669831836741    0.6635315049184801     S1
