Y-Y-N-OCl-PO
   1.000
    3.7145913192650464    0.0000000000000000    0.0000000000000000
   -1.8572956596325232    3.2169304471914710    0.0000000000000000
    0.0000000000000000    0.0000000000000000   27.0579950217920633
   Cl   N    O    P    Y 
    1    1    2    1    2
Direct
    0.3333329854322145    0.6666669831836742    0.6673811199702142    Cl1
    0.0000000000000000    0.0000000000000000    0.4919130603514932     N1
    0.3333329854322145    0.6666669831836742    0.5671440462729785     O1
    0.6666669847440474    0.3333329859851446    0.3326188800297859     O2
    0.6666669847440474    0.3333329859851446    0.3877021464395370     P1
    0.3333329854322145    0.6666669831836742    0.4770347856207509     Y1
    0.6666669847440474    0.3333329859851446    0.5945843547736103     Y2
