Ti-Ti-C-PO-O
   1.000
    3.0940738484686330    0.0000000000000000    0.0000000000000000
   -1.5470369242343165    2.6795465539599013    0.0000000000000000
    0.0000000000000000    0.0000000000000000   24.7280343911453144
   C    O    P    Ti
    1    2    1    2
Direct
    0.0000000000000000    0.0000000000000000    0.4545928715496646     C1
    0.3333329854322145    0.6666669831836742    0.6360406226536652     O1
    0.6666669847440475    0.3333329859851446    0.3639593773463348     O2
    0.3333329854322145    0.6666669831836742    0.5757739936112574     P1
    0.3333329854322145    0.6666669831836742    0.4002356845262228    Ti1
    0.6666669847440475    0.3333329859851446    0.5000451562017334    Ti2
