Sc-Sc-N-SCN-PO
   1.000
    3.3883120130616566    0.0000000000000000    0.0000000000000000
   -1.6941560065308283    2.9343642792537517    0.0000000000000000
    0.0000000000000000    0.0000000000000000   28.3097091659545761
   C    N    O    P    S    Sc
    1    2    1    1    1    2
Direct
    0.3333329854322145    0.6666669831836742    0.6400360313551373     C1
    0.0000000000000000    0.0000000000000000    0.4810761897062702     N1
    0.3333329854322145    0.6666669831836742    0.6820878679028094     N2
    0.6666669847440474    0.3333329859851445    0.3179121320971906     O1
    0.6666669847440474    0.3333329859851445    0.3707022489312451     P1
    0.3333329854322145    0.6666669831836742    0.5809437921340015     S1
    0.3333329854322145    0.6666669831836742    0.4400338599004205    Sc1
    0.6666669847440474    0.3333329859851445    0.5230383612338007    Sc2
