Sc-Sc-C-CN-H
   1.000
    3.3597221276191505    0.0000000000000000    0.0000000000000000
   -1.6798610638095752    2.9096047121717517    0.0000000000000000
    0.0000000000000000    0.0000000000000000   24.1370178666203188
   C    H    N    Sc
    2    1    1    2
Direct
    0.0000000000000000    0.0000000000000000    0.4656665487181701     C1
    0.3333329854322145    0.6666669831836742    0.5774894310579339     C2
    0.6666669847440475    0.3333329859851446    0.3728712490388600     H1
    0.3333329854322145    0.6666669831836742    0.6271287509611401     N1
    0.3333329854322145    0.6666669831836742    0.4139643284118131    Sc1
    0.6666669847440475    0.3333329859851446    0.5174859734284329    Sc2
