Zr-Zr-C-CN-H
   1.000
    3.3622329714028951    0.0000000000000000    0.0000000000000000
   -1.6811164857014476    2.9117791666784054    0.0000000000000000
    0.0000000000000000    0.0000000000000000   24.2096056326570945
   C    H    N    Zr
    2    1    1    2
Direct
    0.0000000000000000    0.0000000000000000    0.4648173401411224     C1
    0.3333329854322145    0.6666669831836742    0.5785318149799901     C2
    0.6666669847440473    0.3333329859851446    0.3717532675484650     H1
    0.3333329854322145    0.6666669831836742    0.6282467324515351     N1
    0.3333329854322145    0.6666669831836742    0.4130569494470226    Zr1
    0.6666669847440473    0.3333329859851446    0.5164366316807936    Zr2
