Hf-Hf-C-O-OCN
   1.000
    3.2862084481293277    0.0000000000000000    0.0000000000000000
   -1.6431042240646638    2.8459399982097437    0.0000000000000000
    0.0000000000000000    0.0000000000000000   25.4525769285550396
   C    Hf   N    O 
    2    2    1    2
Direct
    0.0000000000000000    0.0000000000000000    0.5541638439517955     C1
    0.6666669847440474    0.3333329859851446    0.4002410781619433     C2
    0.3333329854322146    0.6666669831836742    0.5070682648218356    Hf1
    0.6666669847440474    0.3333329859851446    0.6092594317209415    Hf2
    0.6666669847440474    0.3333329859851446    0.3535987741148117     N1
    0.3333329854322146    0.6666669831836742    0.6464012258851883     O1
    0.6666669847440474    0.3333329859851446    0.4528980601560790     O2
