Y-Y-N-NO-F
   1.000
    3.5847046202674573    0.0000000000000000    0.0000000000000000
   -1.7923523101337286    3.1044452662162563    0.0000000000000000
    0.0000000000000000    0.0000000000000000   24.3275651561649546
   F    N    O    Y 
    1    2    1    2
Direct
    0.6666669847440474    0.3333329859851446    0.3699507099139048     F1
    0.0000000000000000    0.0000000000000000    0.4655651109092246     N1
    0.3333329854322145    0.6666669831836742    0.5750595635027225     N2
    0.3333329854322145    0.6666669831836742    0.6300492900860952     O1
    0.3333329854322145    0.6666669831836742    0.4188147009583175     Y1
    0.6666669847440474    0.3333329859851446    0.5353880197535760     Y2
