Sc-Sc-C-OCl-PO
   1.000
    3.3576477537006792    0.0000000000000000    0.0000000000000000
   -1.6788238768503396    2.9078082516577677    0.0000000000000000
    0.0000000000000000    0.0000000000000000   28.1810347505708840
   C    Cl   O    P    Sc
    1    1    2    1    2
Direct
    0.0000000000000000    0.0000000000000000    0.4819065130044471     C1
    0.3333329854322145    0.6666669831836742    0.6806362832430175    Cl1
    0.3333329854322145    0.6666669831836742    0.5623568060666166     O1
    0.6666669847440474    0.3333329859851446    0.3193637167569824     O2
    0.6666669847440474    0.3333329859851446    0.3722621758769661     P1
    0.3333329854322145    0.6666669831836742    0.4494367594925925    Sc1
    0.6666669847440474    0.3333329859851446    0.5419384853927002    Sc2
