Zr-Zr-N-SCN-Br
   1.000
    3.5504424512400781    0.0000000000000000    0.0000000000000000
   -1.7752212256200390    3.0747733574381022    0.0000000000000000
    0.0000000000000000    0.0000000000000000   26.6806037490422092
   Br   C    N    S    Zr
    1    1    2    1    2
Direct
    0.6666669847440474    0.3333329859851446    0.3373237009422280    Br1
    0.3333329854322145    0.6666669831836741    0.6180498908735361     C1
    0.0000000000000000    0.0000000000000000    0.4493336275377107     N1
    0.3333329854322145    0.6666669831836741    0.6626762990577721     N2
    0.3333329854322145    0.6666669831836741    0.5549960182482350     S1
    0.3333329854322145    0.6666669831836741    0.4099109906435743    Zr1
    0.6666669847440474    0.3333329859851446    0.4934429498934350    Zr2
