Zr-Zr-N-NCS-OCN
   1.000
    3.4075642838940801    0.0000000000000000    0.0000000000000000
   -1.7037821419470400    2.9510372348659488    0.0000000000000000
    0.0000000000000000    0.0000000000000000   28.3824193827462032
   C    N    O    S    Zr
    2    3    1    1    2
Direct
    0.3333329854322145    0.6666669831836742    0.6282030648292480     C1
    0.6666669847440474    0.3333329859851446    0.3589535145962385     C2
    0.0000000000000000    0.0000000000000000    0.4939649106285993     N1
    0.3333329854322145    0.6666669831836742    0.5839891460613780     N2
    0.6666669847440474    0.3333329859851446    0.3170977032870967     N3
    0.6666669847440474    0.3333329859851446    0.4059966039607622     O1
    0.3333329854322145    0.6666669831836742    0.6829022967129033     S1
    0.3333329854322145    0.6666669831836742    0.4543965449723820    Zr1
    0.6666669847440474    0.3333329859851446    0.5355529463842205    Zr2
