Y-Y-N-NO-O
   1.000
    3.5813641051448766    0.0000000000000000    0.0000000000000000
   -1.7906820525724383    3.1015522952614387    0.0000000000000000
    0.0000000000000000    0.0000000000000000   24.2511490812632537
   N    O    Y 
    2    2    2
Direct
    0.0000000000000000    0.0000000000000000    0.4713490385116644     N1
    0.3333329854322146    0.6666669831836742    0.5758185851537385     N2
    0.3333329854322146    0.6666669831836742    0.6288835646574159     O1
    0.6666669847440474    0.3333329859851446    0.3711164353425841     O2
    0.3333329854322146    0.6666669831836742    0.3998470873642146     Y1
    0.6666669847440474    0.3333329859851446    0.5169506997424045     Y2
