Zr-Zr-N-Cl-Br
   1.000
    3.4866644656663324    0.0000000000000000    0.0000000000000000
   -1.7433322328331662    3.0195400017339207    0.0000000000000000
    0.0000000000000000    0.0000000000000000   23.9728066819543173
   Br   Cl   N    Zr
    1    1    1    2
Direct
    0.6666669847440474    0.3333329859851446    0.3754253775706124    Br1
    0.3333329854322145    0.6666669831836742    0.6245746224293875    Cl1
    0.0000000000000000    0.0000000000000000    0.5040076406551526     N1
    0.3333329854322145    0.6666669831836742    0.4570168393557541    Zr1
    0.6666669847440474    0.3333329859851446    0.5506048079650726    Zr2
