Hf-Hf-N-O-F
   1.000
    3.2763204377901660    0.0000000000000000    0.0000000000000000
   -1.6381602188950830    2.8373767300590362    0.0000000000000000
    0.0000000000000000    0.0000000000000000   22.8198335117029671
   F    Hf   N    O 
    1    2    1    1
Direct
    0.6666669847440474    0.3333329859851446    0.3943937625743161     F1
    0.3333329854322145    0.6666669831836742    0.4536513092982232    Hf1
    0.6666669847440474    0.3333329859851446    0.5632470587471361    Hf2
    0.0000000000000000    0.0000000000000000    0.5065817276197432     N1
    0.3333329854322145    0.6666669831836742    0.6056062374256839     O1
