Y-Y-N-NO-NCS
   1.000
    3.6327048735421004    0.0000000000000000    0.0000000000000000
   -1.8163524367710502    3.1460147049325839    0.0000000000000000
    0.0000000000000000    0.0000000000000000   27.2795851939117107
   C    N    O    S    Y 
    1    3    1    1    2
Direct
    0.6666669847440474    0.3333329859851445    0.3870603260248902     C1
    0.0000000000000000    0.0000000000000000    0.5255697692372636     N1
    0.3333329854322145    0.6666669831836741    0.6208527229239589     N2
    0.6666669847440474    0.3333329859851445    0.4327577112327410     N3
    0.3333329854322145    0.6666669831836741    0.6700829599854536     O1
    0.6666669847440474    0.3333329859851445    0.3299170400145464     S1
    0.3333329854322145    0.6666669831836741    0.4842817157134827     Y1
    0.6666669847440474    0.3333329859851445    0.5876204791057522     Y2
