Y-Y-C-OCl-OCl
   1.000
    3.6887903966984412    0.0000000000000000    0.0000000000000000
   -1.8443951983492206    3.1945861927838877    0.0000000000000000
    0.0000000000000000    0.0000000000000000   26.4899490155053634
   C    Cl   O    Y 
    1    2    2    2
Direct
    0.0000000000000000    0.0000000000000000    0.5000000259163822     C1
    0.3333329854322145    0.6666669831836742    0.6602484967135260    Cl1
    0.6666669847440474    0.3333329859851446    0.3397515032864740    Cl2
    0.3333329854322145    0.6666669831836742    0.5935713455877987     O1
    0.6666669847440474    0.3333329859851446    0.4064286544122079     O2
    0.3333329854322145    0.6666669831836742    0.4480089357744322     Y1
    0.6666669847440474    0.3333329859851446    0.5519910638387557     Y2
