Sc-Sc-C-NO-NO
   1.000
    3.3395388492892271    0.0000000000000000    0.0000000000000000
   -1.6697694246446135    2.8921254804106327    0.0000000000000000
    0.0000000000000000    0.0000000000000000   25.6744189118174546
   C    N    O    Sc
    1    2    2    2
Direct
    0.0000000000000000    0.0000000000000000    0.5000000326249442     C1
    0.3333329854322145    0.6666669831836741    0.5993691915764687     N1
    0.6666669847440474    0.3333329859851446    0.4006308084235314     N2
    0.3333329854322145    0.6666669831836741    0.6494565259329992     O1
    0.6666669847440474    0.3333329859851446    0.3505434740670009     O2
    0.3333329854322145    0.6666669831836741    0.4498272725841672    Sc1
    0.6666669847440474    0.3333329859851446    0.5501727269288845    Sc2
