Sc-Sc-N-O-Cl
   1.000
    3.3244645435191029    0.0000000000000000    0.0000000000000000
   -1.6622322717595515    2.8790707486618419    0.0000000000000000
    0.0000000000000000    0.0000000000000000   23.0223508778933414
   Cl   N    O    Sc
    1    1    1    2
Direct
    0.6666669847440474    0.3333329859851446    0.3909244563135398    Cl1
    0.0000000000000000    0.0000000000000000    0.5100810885019876     N1
    0.3333329854322145    0.6666669831836742    0.6090755436864601     O1
    0.3333329854322145    0.6666669831836742    0.4665652656712677    Sc1
    0.6666669847440474    0.3333329859851446    0.5795051644750422    Sc2
