Hf-Hf-C-SCN-Cl
   1.000
    3.4719268117464921    0.0000000000000000    0.0000000000000000
   -1.7359634058732460    3.0067768190426416    0.0000000000000000
    0.0000000000000000    0.0000000000000000   26.6084049620119032
   C    Cl   Hf   N    S 
    2    1    2    1    1
Direct
    0.0000000000000000    0.0000000000000000    0.4461233110703422     C1
    0.3333329854322145    0.6666669831836742    0.6170321957787495     C2
    0.6666669847440474    0.3333329859851446    0.3382389892535481    Cl1
    0.3333329854322145    0.6666669831836742    0.4046182209942099    Hf1
    0.6666669847440474    0.3333329859851446    0.4915556847345151    Hf2
    0.3333329854322145    0.6666669831836742    0.6617610107464520     N1
    0.3333329854322145    0.6666669831836742    0.5535833242400297     S1
