Ti-Ti-C-NCO-Cl
   1.000
    3.2048217076470369    0.0000000000000000    0.0000000000000000
   -1.6024108538235184    2.7754570134307786    0.0000000000000000
    0.0000000000000000    0.0000000000000000   25.6766538481780096
   C    Cl   N    O    Ti
    2    1    1    1    2
Direct
    0.0000000000000000    0.0000000000000000    0.4589588262167569     C1
    0.3333329854322145    0.6666669831836742    0.6025812304498477     C2
    0.6666669847440473    0.3333329859851446    0.3505129622113370    Cl1
    0.3333329854322145    0.6666669831836742    0.5540316130138608     N1
    0.3333329854322145    0.6666669831836742    0.6494870377886630     O1
    0.3333329854322145    0.6666669831836742    0.4161266154809123    Ti1
    0.6666669847440473    0.3333329859851446    0.5020868015551617    Ti2
