Zr-Zr-N-F-F
   1.000
    3.3882574699661108    0.0000000000000000    0.0000000000000000
   -1.6941287349830554    2.9343170435512071    0.0000000000000000
    0.0000000000000000    0.0000000000000000   22.8920795969631925
   F    N    Zr
    2    1    2
Direct
    0.3333329854322146    0.6666669831836743    0.6068509214342450     F1
    0.6666669847440475    0.3333329859851446    0.3931490785657550     F2
    0.0000000000000000    0.0000000000000000    0.5000000355455588     N1
    0.3333329854322146    0.6666669831836743    0.4500459966133100    Zr1
    0.6666669847440475    0.3333329859851446    0.5499540028561501    Zr2
