Zr-Zr-C-NO-SCN
   1.000
    3.4991968739376436    0.0000000000000000    0.0000000000000000
   -1.7495984369688218    3.0303933856483183    0.0000000000000000
    0.0000000000000000    0.0000000000000000   27.4127817078095966
   C    N    O    S    Zr
    2    2    1    1    2
Direct
    0.0000000000000000    0.0000000000000000    0.5368461959537647     C1
    0.6666669847440473    0.3333329859851446    0.3717633737877257     C2
    0.3333329854322145    0.6666669831836742    0.6231189320175547     N1
    0.6666669847440473    0.3333329859851446    0.3283139995032318     N2
    0.3333329854322145    0.6666669831836742    0.6716860004967682     O1
    0.6666669847440473    0.3333329859851446    0.4329787798929732     S1
    0.3333329854322145    0.6666669831836742    0.4956287208540703    Zr1
    0.6666669847440473    0.3333329859851446    0.5891086641843000    Zr2
