Y-Y-N-Br-OCN
   1.000
    3.6182661148036934    0.0000000000000000    0.0000000000000000
   -1.8091330574018467    3.1335103730724163    0.0000000000000000
    0.0000000000000000    0.0000000000000000   26.3962615154723714
   Br   C    N    O    Y 
    1    1    2    1    2
Direct
    0.3333329854322145    0.6666669831836743    0.6590426263687159    Br1
    0.6666669847440473    0.3333329859851447    0.3860002017778567     C1
    0.0000000000000000    0.0000000000000000    0.5335338416045814     N1
    0.6666669847440473    0.3333329859851447    0.3409573736312842     N2
    0.6666669847440473    0.3333329859851447    0.4365247966141004     O1
    0.3333329854322145    0.6666669831836743    0.4857043204667049     Y1
    0.6666669847440473    0.3333329859851447    0.5845902004999414     Y2
