Y-Y-C-O-O
   1.000
    3.5932150935578067    0.0000000000000000    0.0000000000000000
   -1.7966075467789033    3.1118155522862692    0.0000000000000000
    0.0000000000000000    0.0000000000000000   22.7853635773014993
   C    O    Y 
    1    2    2
Direct
    0.0000000000000000    0.0000000000000000    0.5000000317541876     C1
    0.3333329854322145    0.6666669831836742    0.6050095944501105     O1
    0.6666669847440474    0.3333329859851446    0.3949904055498895     O2
    0.3333329854322145    0.6666669831836742    0.4268863559529830     Y1
    0.6666669847440474    0.3333329859851446    0.5731136435730653     Y2
