Hf-Hf-N-NO-O
   1.000
    3.2921133089657291    0.0000000000000000    0.0000000000000000
   -1.6460566544828645    2.8510537576968087    0.0000000000000000
    0.0000000000000000    0.0000000000000000   23.9334292002923021
   Hf   N    O 
    2    2    2
Direct
    0.3333329854322145    0.6666669831836742    0.4146358712012411    Hf1
    0.6666669847440474    0.3333329859851446    0.5288995663214470    Hf2
    0.0000000000000000    0.0000000000000000    0.4666505119782862     N1
    0.3333329854322145    0.6666669831836742    0.5670881587701655     N2
    0.3333329854322145    0.6666669831836742    0.6239569380266626     O1
    0.6666669847440474    0.3333329859851446    0.3760430619733374     O2
