 Sc-Sc-C-O-O                            
   1.0000000000000000     
     3.4372436642459885    0.0000000000000000    0.0000000000000000
    -1.7186218321229942    2.9767403322274526   -0.0000000000000000
     0.0000000000000023    0.0000000000000043   29.5031228817758553
   C    O    Sc
     1     2     2
Direct
 -0.0000000000000000 -0.0000000000000000  0.5079624980182907
 -0.0000000000000000 -0.0000000000000000  0.5638635218480545
  0.6666669847440474  0.3333329859851446  0.4330004124524393
  0.3333329854322145  0.6666669831836742  0.4546324966068154
  0.6666669847440474  0.3333329859851446  0.5405410974743812

  0.00000000E+00  0.00000000E+00  0.00000000E+00
  0.00000000E+00  0.00000000E+00  0.00000000E+00
  0.00000000E+00  0.00000000E+00  0.00000000E+00
  0.00000000E+00  0.00000000E+00  0.00000000E+00
  0.00000000E+00  0.00000000E+00  0.00000000E+00
