Zr-Zr-C-OCN-OCN
   1.000
    3.3917648108246854    0.0000000000000000    0.0000000000000000
   -1.6958824054123427    2.9373544898395560    0.0000000000000000
    0.0000000000000000    0.0000000000000000   28.2469008356958184
   C    N    O    Zr
    3    2    2    2
Direct
    0.0000000000000000    0.0000000000000000    0.5000000287475697     C1
    0.3333329854322145    0.6666669831836742    0.6393090350052741     C2
    0.6666669847440474    0.3333329859851446    0.3606909645656572     C3
    0.3333329854322145    0.6666669831836742    0.6813809751253619     N1
    0.6666669847440474    0.3333329859851446    0.3186190248746381     N2
    0.3333329854322145    0.6666669831836742    0.5919760704723716     O1
    0.6666669847440474    0.3333329859851446    0.4080239295276282     O2
    0.3333329854322145    0.6666669831836742    0.4571602495056810    Zr1
    0.6666669847440474    0.3333329859851446    0.5428397500652431    Zr2
