Hf-Hf-N-PO-PO
   1.000
    3.2159603769447185    0.0000000000000000    0.0000000000000000
   -1.6079801884723592    2.7851033839952284    0.0000000000000000
    0.0000000000000000    0.0000000000000000   27.4589095160884717
   Hf   N    O    P 
    2    1    2    2
Direct
    0.3333329854322145    0.6666669831836742    0.4531187278827467    Hf1
    0.6666669847440475    0.3333329859851446    0.5468812716262872    Hf2
    0.0000000000000000    0.0000000000000000    0.5000000328941552     N1
    0.3333329854322145    0.6666669831836742    0.6722375302367050     O1
    0.6666669847440475    0.3333329859851446    0.3277624697632950     O2
    0.3333329854322145    0.6666669831836742    0.6178793976775103     P1
    0.6666669847440475    0.3333329859851446    0.3821206023224897     P2
