Ti-Ti-C-CN-F
   1.000
    3.2297058557583429    0.0000000000000000    0.0000000000000000
   -1.6148529278791715    2.7970073178379633    0.0000000000000000
    0.0000000000000000    0.0000000000000000   24.0650648372630123
   C    F    N    Ti
    2    1    1    2
Direct
    0.0000000000000000    0.0000000000000000    0.4705066004050779     C1
    0.3333329854322145    0.6666669831836742    0.5759813173536634     C2
    0.6666669847440473    0.3333329859851446    0.3739861106072796     F1
    0.3333329854322145    0.6666669831836742    0.6260138893927205     N1
    0.3333329854322145    0.6666669831836742    0.4247355525717692    Ti1
    0.6666669847440473    0.3333329859851446    0.5179677870873054    Ti2
