Y-Y-C-Br-OCN
   1.000
    3.7178700280167813    0.0000000000000000    0.0000000000000000
   -1.8589350140083907    3.2197698922563376    0.0000000000000000
    0.0000000000000000    0.0000000000000000   26.4151808897876244
   Br   C    N    O    Y 
    1    2    1    1    2
Direct
    0.3333329854322145    0.6666669831836742    0.6592868306467100    Br1
    0.0000000000000000    0.0000000000000000    0.5342861425508316     C1
    0.6666669847440474    0.3333329859851446    0.3857568920558953     C2
    0.6666669847440474    0.3333329859851446    0.3407131693532900     N1
    0.6666669847440474    0.3333329859851446    0.4362115905653119     O1
    0.3333329854322145    0.6666669831836742    0.4831525382803706     Y1
    0.6666669847440474    0.3333329859851446    0.5854207709916406     Y2
