Y-Y-C-NO-NO
   1.000
    3.6620163853021044    0.0000000000000000    0.0000000000000000
   -1.8310081926510522    3.1713992187643840    0.0000000000000000
    0.0000000000000000    0.0000000000000000   25.9473855738221779
   C    N    O    Y 
    1    2    2    2
Direct
    0.0000000000000000    0.0000000000000000    0.5000000268465961     C1
    0.3333329854322146    0.6666669831836743    0.6032823616178901     N1
    0.6666669847440475    0.3333329859851446    0.3967176383821097     N2
    0.3333329854322146    0.6666669831836743    0.6531442455196748     O1
    0.6666669847440475    0.3333329859851446    0.3468557544803254     O2
    0.3333329854322146    0.6666669831836743    0.4464014330183108     Y1
    0.6666669847440475    0.3333329859851446    0.5535985665809864     Y2
