Y-Y-N-NCS-OH
   1.000
    3.5461693107859458    0.0000000000000000    0.0000000000000000
   -1.7730846553929729    3.0710727092579670    0.0000000000000000
    0.0000000000000000    0.0000000000000000   27.1397732323441048
   C    H    N    O    S    Y 
    1    1    2    1    1    2
Direct
    0.3333329854322145    0.6666669831836742    0.6109906925149085     C1
    0.6666669847440474    0.3333329859851446    0.3316166249051100     H1
    0.0000000000000000    0.0000000000000000    0.4634928891295126     N1
    0.3333329854322145    0.6666669831836742    0.5649309385383313     N2
    0.6666669847440474    0.3333329859851446    0.3680031076424097     O1
    0.3333329854322145    0.6666669831836742    0.6683833750948900     S1
    0.3333329854322145    0.6666669831836742    0.4152830849365917     Y1
    0.6666669847440474    0.3333329859851446    0.5140867815000528     Y2
