Y-Y-C-NO-H
   1.000
    3.6400270159551766    0.0000000000000000    0.0000000000000000
   -1.8200135079775883    3.1523558662891626    0.0000000000000000
    0.0000000000000000    0.0000000000000000   24.3809564694644259
   C    H    N    O    Y 
    1    1    1    1    2
Direct
    0.0000000000000000    0.0000000000000000    0.4674785683443420     C1
    0.6666669847440475    0.3333329859851446    0.3691405630977570     H1
    0.3333329854322145    0.6666669831836742    0.5777744242105975     N1
    0.3333329854322145    0.6666669831836742    0.6308594369022429     O1
    0.3333329854322145    0.6666669831836742    0.4119862430230424     Y1
    0.6666669847440475    0.3333329859851446    0.5248976338317467     Y2
