Sc-Sc-C-F-OH
   1.000
    3.3441409668828834    0.0000000000000000    0.0000000000000000
   -1.6720704834414417    2.8961110311520302    0.0000000000000000
    0.0000000000000000    0.0000000000000000   23.8386487155169355
   C    F    H    O    Sc
    1    1    1    1    2
Direct
    0.0000000000000000    0.0000000000000000    0.5229107507918160     C1
    0.3333329854322145    0.6666669831836742    0.6224618220855043     F1
    0.6666669847440474    0.3333329859851446    0.3775381779144958     H1
    0.6666669847440474    0.3333329859851446    0.4187783863245911     O1
    0.3333329854322145    0.6666669831836742    0.4700383995516222    Sc1
    0.6666669847440474    0.3333329859851446    0.5754532737815254    Sc2
