Y-Y-C-O-Cl
   1.000
    3.6302623425231388    0.0000000000000000    0.0000000000000000
   -1.8151311712615694    3.1438994110438014    0.0000000000000000
    0.0000000000000000    0.0000000000000000   23.5661743418206520
   C    Cl   O    Y 
    1    1    1    2
Direct
    0.0000000000000000    0.0000000000000000    0.5115001128869174     C1
    0.6666669847440474    0.3333329859851446    0.3819033106289362    Cl1
    0.3333329854322145    0.6666669831836742    0.6180966893710638     O1
    0.3333329854322145    0.6666669831836742    0.4584837756584477     Y1
    0.6666669847440474    0.3333329859851446    0.5893205335543799     Y2
