Ti-Ti-N-NCS-OH
   1.000
    3.1775186200432719    0.0000000000000000    0.0000000000000000
   -1.5887593100216360    2.7518118459618739    0.0000000000000000
    0.0000000000000000    0.0000000000000000   26.4260232029777349
   C    H    N    O    S    Ti
    1    1    2    1    1    2
Direct
    0.3333329854322146    0.6666669831836742    0.6007995706244499     C1
    0.6666669847440474    0.3333329859851446    0.3405733784032198     H1
    0.0000000000000000    0.0000000000000000    0.4639524226339615     N1
    0.3333329854322146    0.6666669831836742    0.5533704258914002     N2
    0.6666669847440474    0.3333329859851446    0.3779048629023272     O1
    0.3333329854322146    0.6666669831836742    0.6594266215967802     S1
    0.3333329854322146    0.6666669831836742    0.4245916492056631    Ti1
    0.6666669847440474    0.3333329859851446    0.5047804523614633    Ti2
