Sc-Sc-N-NO-OH
   1.000
    3.2759454453296457    0.0000000000000000    0.0000000000000000
   -1.6379727226648229    2.8370519770581595    0.0000000000000000
    0.0000000000000000    0.0000000000000000   25.1649091949935517
   H    N    O    Sc
    1    2    2    2
Direct
    0.6666669847440473    0.3333329859851445    0.3576408692859703     H1
    0.0000000000000000    0.0000000000000000    0.4899294305482208     N1
    0.3333329854322145    0.6666669831836742    0.5900547576679115     N2
    0.3333329854322145    0.6666669831836742    0.6423591307140297     O1
    0.6666669847440473    0.3333329859851445    0.3967843983047416     O2
    0.3333329854322145    0.6666669831836742    0.4458114432512293    Sc1
    0.6666669847440473    0.3333329859851445    0.5483516952742952    Sc2
