Hf-Hf-C-NCS-PO
   1.000
    3.3366812132750292    0.0000000000000000    0.0000000000000000
   -1.6683406066375146    2.8896506949963232    0.0000000000000000
    0.0000000000000000    0.0000000000000000   28.0608074879922214
   C    Hf   N    O    P    S 
    2    2    1    1    1    1
Direct
    0.0000000000000000    0.0000000000000000    0.4875498676634099     C1
    0.3333329854322145    0.6666669831836742    0.6240451910610427     C2
    0.3333329854322145    0.6666669831836742    0.4433581604038059    Hf1
    0.6666669847440475    0.3333329859851445    0.5313143725012341    Hf2
    0.3333329854322145    0.6666669831836742    0.5790093814139827     N1
    0.6666669847440475    0.3333329859851445    0.3207320389426170     O1
    0.6666669847440475    0.3333329859851445    0.3740220978652126     P1
    0.3333329854322145    0.6666669831836742    0.6792679610573831     S1
