Sc-Sc-N-F-F
   1.000
    3.2139384996429339    0.0000000000000000    0.0000000000000000
   -1.6069692498214669    2.7833523868916741    0.0000000000000000
    0.0000000000000000    0.0000000000000000   22.8314081908347433
   F    N    Sc
    2    1    2
Direct
    0.3333329854322145    0.6666669831836742    0.6058061804697229     F1
    0.6666669847440474    0.3333329859851446    0.3941938195302771     F2
    0.0000000000000000    0.0000000000000000    0.5000000396109792     N1
    0.3333329854322145    0.6666669831836742    0.4463768901565431    Sc1
    0.6666669847440474    0.3333329859851446    0.5536231092522376    Sc2
