Zr-Zr-N-OCl-H
   1.000
    3.2459432720159560    0.0000000000000000    0.0000000000000000
   -1.6229716360079784    2.8110693328126892    0.0000000000000000
    0.0000000000000000    0.0000000000000000   26.1114665171506104
   Cl   H    N    O    Zr
    1    1    1    1    2
Direct
    0.3333329854322146    0.6666669831836742    0.6553238404251023    Cl1
    0.6666669847440475    0.3333329859851446    0.3446761595748976     H1
    0.0000000000000000    0.0000000000000000    0.4336818208072110     N1
    0.3333329854322146    0.6666669831836742    0.5214168116949700     O1
    0.3333329854322146    0.6666669831836742    0.3824195364319879    Zr1
    0.6666669847440475    0.3333329859851446    0.4848005928763562    Zr2
