Y-Y-C-NO-OCN
   1.000
    3.6678194530676218    0.0000000000000000    0.0000000000000000
   -1.8339097265338109    3.1764248228596093    0.0000000000000000
    0.0000000000000000    0.0000000000000000   27.0978892188672909
   C    N    O    Y 
    2    2    2    2
Direct
    0.0000000000000000    0.0000000000000000    0.5214833542173095     C1
    0.6666669847440474    0.3333329859851446    0.3760275872736990     C2
    0.3333329854322146    0.6666669831836742    0.6201054474325766     N1
    0.6666669847440474    0.3333329859851446    0.3321291901117384     N2
    0.3333329854322146    0.6666669831836742    0.6678708098882616     O1
    0.6666669847440474    0.3333329859851446    0.4252355032382841     O2
    0.3333329854322146    0.6666669831836742    0.4718788962910107     Y1
    0.6666669847440474    0.3333329859851446    0.5732175132135718     Y2
