Hf-Hf-N-OCN-OCN
   1.000
    3.3349900220630593    0.0000000000000000    0.0000000000000000
   -1.6674950110315296    2.8881860804660384    0.0000000000000000
    0.0000000000000000    0.0000000000000000   27.9910187728111701
   C    Hf   N    O 
    2    2    3    2
Direct
    0.3333329854322145    0.6666669831836742    0.6360451675219557     C1
    0.6666669847440474    0.3333329859851446    0.3639548320301861     C2
    0.3333329854322145    0.6666669831836742    0.4600770384103754    Hf1
    0.6666669847440474    0.3333329859851446    0.5399229611417582    Hf2
    0.0000000000000000    0.0000000000000000    0.5000000300065190     N1
    0.3333329854322145    0.6666669831836742    0.6784682946680715     N2
    0.6666669847440474    0.3333329859851446    0.3215317053319285     N3
    0.3333329854322145    0.6666669831836742    0.5881151137934673     O1
    0.6666669847440474    0.3333329859851446    0.4118848862065326     O2
