Sc-Sc-N-SCN-OH
   1.000
    3.3740934958496198    0.0000000000000000    0.0000000000000000
   -1.6870467479248099    2.9220506821282290    0.0000000000000000
    0.0000000000000000    0.0000000000000000   27.0842260178662393
   C    H    N    O    S    Sc
    1    1    2    1    1    2
Direct
    0.3333329854322145    0.6666669831836742    0.6237620876468566     C1
    0.6666669847440473    0.3333329859851446    0.3322967395879471     H1
    0.0000000000000000    0.0000000000000000    0.4561352707036367     N1
    0.3333329854322145    0.6666669831836742    0.6677032604120529     N2
    0.6666669847440473    0.3333329859851446    0.3686756481953918     O1
    0.3333329854322145    0.6666669831836742    0.5619684552308710     S1
    0.3333329854322145    0.6666669831836742    0.4131151767824537    Sc1
    0.6666669847440473    0.3333329859851446    0.5014445089982454    Sc2
