Hf-Hf-C-F-Br
   1.000
    3.4006622904528530    0.0000000000000000    0.0000000000000000
   -1.7003311452264265    2.9450599332198086    0.0000000000000000
    0.0000000000000000    0.0000000000000000   23.5954828591444468
   Br   C    F    Hf
    1    1    1    2
Direct
    0.6666669847440474    0.3333329859851447    0.3814289393324301    Br1
    0.0000000000000000    0.0000000000000000    0.5158535808398332     C1
    0.3333329854322145    0.6666669831836742    0.6185710606675699     F1
    0.3333329854322145    0.6666669831836742    0.4646509520211912    Hf1
    0.6666669847440474    0.3333329859851447    0.5635953441712112    Hf2
