Y-Y-N-O-H
   1.000
    3.5551895035369174    0.0000000000000000    0.0000000000000000
   -1.7775947517684587    3.0788844253310299    0.0000000000000000
    0.0000000000000000    0.0000000000000000   22.6930890728267940
   H    N    O    Y 
    1    1    1    2
Direct
    0.6666669847440474    0.3333329859851446    0.3965965131991130     H1
    0.0000000000000000    0.0000000000000000    0.4952040512479817     N1
    0.3333329854322145    0.6666669831836742    0.6034034868008871     O1
    0.3333329854322145    0.6666669831836742    0.4465664504537646     Y1
    0.6666669847440474    0.3333329859851446    0.5716378810836492     Y2
