Ti-Ti-N-NCS-SCN
   1.000
    3.3027500309534594    0.0000000000000000    0.0000000000000000
   -1.6513750154767297    2.8602654291506582    0.0000000000000000
    0.0000000000000000    0.0000000000000000   28.5543943094630599
   C    N    S    Ti
    2    3    2    2
Direct
    0.3333329854322145    0.6666669831836741    0.6304543224433007     C1
    0.6666669847440474    0.3333329859851446    0.3568947516963331     C2
    0.0000000000000000    0.0000000000000000    0.5070848106441135     N1
    0.3333329854322145    0.6666669831836741    0.5866273083610839     N2
    0.6666669847440474    0.3333329859851446    0.3151879147728011     N3
    0.3333329854322145    0.6666669831836741    0.6848120852271989     S1
    0.6666669847440474    0.3333329859851446    0.4156124081265089     S2
    0.3333329854322145    0.6666669831836741    0.4702202633988841    Ti1
    0.6666669847440474    0.3333329859851446    0.5419423374981225    Ti2
