Ti-Ti-C-NO-NO
   1.000
    3.1241740830022744    0.0000000000000000    0.0000000000000000
   -1.5620870415011372    2.7056141217347043    0.0000000000000000
    0.0000000000000000    0.0000000000000000   25.3830144904430774
   C    N    O    Ti
    1    2    2    2
Direct
    0.0000000000000000    0.0000000000000000    0.5000000377059383     C1
    0.3333329854322145    0.6666669831836741    0.5944505258621886     N1
    0.6666669847440475    0.3333329859851446    0.4055494741378113     N2
    0.3333329854322145    0.6666669831836741    0.6454321844480460     O1
    0.6666669847440475    0.3333329859851446    0.3545678155519542     O2
    0.3333329854322145    0.6666669831836741    0.4525983016312102    Ti1
    0.6666669847440475    0.3333329859851446    0.5474016978060046    Ti2
