Y-Y-C-OCl-Br
   1.000
    3.8049908373650760    0.0000000000000000    0.0000000000000000
   -1.9024954186825380    3.2952187263497277    0.0000000000000000
    0.0000000000000000    0.0000000000000000   25.0773242587265877
   Br   C    Cl   O    Y 
    1    1    1    1    2
Direct
    0.6666669847440475    0.3333329859851446    0.3588899639828246    Br1
    0.0000000000000000    0.0000000000000000    0.4703585768288619     C1
    0.3333329854322145    0.6666669831836742    0.6411100360171755    Cl1
    0.3333329854322145    0.6666669831836742    0.5357642364077628     O1
    0.3333329854322145    0.6666669831836742    0.4380402701119204     Y1
    0.6666669847440475    0.3333329859851446    0.5612468484436439     Y2
