Y-Y-N-OCl-OH
   1.000
    3.7063316503428050    0.0000000000000000    0.0000000000000000
   -1.8531658251714025    3.2097773640465816    0.0000000000000000
    0.0000000000000000    0.0000000000000000   25.4486692016966067
   Cl   H    N    O    Y 
    1    1    1    2    2
Direct
    0.3333329854322146    0.6666669831836743    0.6463469296304112    Cl1
    0.6666669847440474    0.3333329859851447    0.3536530703695889     H1
    0.0000000000000000    0.0000000000000000    0.4744761914957537     N1
    0.3333329854322146    0.6666669831836743    0.5407348220436681     O1
    0.6666669847440474    0.3333329859851447    0.3923692361465156     O2
    0.3333329854322146    0.6666669831836743    0.4446027776704946     Y1
    0.6666669847440474    0.3333329859851447    0.5678871443111149     Y2
