Hf-Hf-C-Cl-Br
   1.000
    3.4406277168312549    0.0000000000000000    0.0000000000000000
   -1.7203138584156275    2.9796710077332014    0.0000000000000000
    0.0000000000000000    0.0000000000000000   24.0410481152095201
   Br   C    Cl   Hf
    1    1    1    2
Direct
    0.6666669847440474    0.3333329859851446    0.3743597182980624    Br1
    0.0000000000000000    0.0000000000000000    0.5039652409706332     C1
    0.3333329854322146    0.6666669831836742    0.6256402817019375    Cl1
    0.3333329854322146    0.6666669831836742    0.4556357970641071    Hf1
    0.6666669847440474    0.3333329859851446    0.5518432045674178    Hf2
