Hf-Hf-C-O-Br
   1.000
    3.3411139328049533    0.0000000000000000    0.0000000000000000
   -1.6705569664024766    2.8934895427413561    0.0000000000000000
    0.0000000000000000    0.0000000000000000   23.4796132999475766
   Br   C    Hf   O 
    1    1    2    1
Direct
    0.6666669847440474    0.3333329859851446    0.3833112532573139    Br1
    0.0000000000000000    0.0000000000000000    0.5180644891975921     C1
    0.3333329854322146    0.6666669831836742    0.4670797065237350    Hf1
    0.6666669847440474    0.3333329859851446    0.5772480131207267    Hf2
    0.3333329854322146    0.6666669831836742    0.6166887467426863     O1
