Ti-Ti-N-CN-PO
   1.000
    3.1155902980883998    0.0000000000000000    0.0000000000000000
   -1.5577951490441999    2.6981803459237366    0.0000000000000000
    0.0000000000000000    0.0000000000000000   26.2118041084633546
   C    N    O    P    Ti
    1    2    1    1    2
Direct
    0.3333329854322145    0.6666669831836742    0.6106342096495361     C1
    0.0000000000000000    0.0000000000000000    0.5136963643335323     N1
    0.3333329854322145    0.6666669831836742    0.6566432450525581     N2
    0.6666669847440473    0.3333329859851447    0.3433567549474418     O1
    0.6666669847440473    0.3333329859851447    0.4002261818005194     P1
    0.3333329854322145    0.6666669831836742    0.4704517117530783    Ti1
    0.6666669847440473    0.3333329859851447    0.5571051253972716    Ti2
