Sc-Sc-N-NCO-H
   1.000
    3.2550464560824199    0.0000000000000000    0.0000000000000000
   -1.6275232280412100    2.8189529214305491    0.0000000000000000
    0.0000000000000000    0.0000000000000000   25.2333255971692729
   C    H    N    O    Sc
    1    1    2    1    2
Direct
    0.3333329854322145    0.6666669831836741    0.5956056343559486     C1
    0.6666669847440474    0.3333329859851445    0.3566711793632797     H1
    0.0000000000000000    0.0000000000000000    0.4448423185279539     N1
    0.3333329854322145    0.6666669831836741    0.5462885688112480     N2
    0.3333329854322145    0.6666669831836741    0.6433288206367203     O1
    0.3333329854322145    0.6666669831836741    0.3957621079930129    Sc1
    0.6666669847440474    0.3333329859851445    0.4924153899547141    Sc2
