Y-Y-C-NCO-SCN
   1.000
    3.7341642875442700    0.0000000000000000    0.0000000000000000
   -1.8670821437721350    3.2338811349775871    0.0000000000000000
    0.0000000000000000    0.0000000000000000   29.1313239871195471
   C    N    O    S    Y 
    3    2    1    1    2
Direct
    0.0000000000000000    0.0000000000000000    0.5134217048462479     C1
    0.3333329854322145    0.6666669831836742    0.6496598935514075     C2
    0.6666669847440473    0.3333329859851447    0.3498055907905875     C3
    0.3333329854322145    0.6666669831836742    0.6067984871801354     N1
    0.6666669847440473    0.3333329859851447    0.3089457933315822     N2
    0.3333329854322145    0.6666669831836742    0.6910542066684178     O1
    0.6666669847440473    0.3333329859851447    0.4072637206995633     S1
    0.3333329854322145    0.6666669831836742    0.4674609316886222     Y1
    0.6666669847440473    0.3333329859851447    0.5599205913109085     Y2
