Zr-Zr-C-NCO-PO
   1.000
    3.3396336109355222    0.0000000000000000    0.0000000000000000
   -1.6698168054677611    2.8922075463763166    0.0000000000000000
    0.0000000000000000    0.0000000000000000   27.9460862112251576
   C    N    O    P    Zr
    2    1    2    1    2
Direct
    0.0000000000000000    0.0000000000000000    0.4934766446956649     C1
    0.3333329854322145    0.6666669831836742    0.6348734623174972     C2
    0.3333329854322145    0.6666669831836742    0.5902361281456092     N1
    0.3333329854322145    0.6666669831836742    0.6779513262796366     O1
    0.6666669847440475    0.3333329859851445    0.3220486737203634     O2
    0.6666669847440475    0.3333329859851445    0.3754431032741135     P1
    0.3333329854322145    0.6666669831836742    0.4471680927648856    Zr1
    0.6666669847440475    0.3333329859851445    0.5383374026829928    Zr2
