Y-Y-N-Cl-Br
   1.000
    3.6495204417897451    0.0000000000000000    0.0000000000000000
   -1.8247602208948726    3.1605774142378711    0.0000000000000000
    0.0000000000000000    0.0000000000000000   24.3320263987444108
   Br   Cl   N    Y 
    1    1    1    2
Direct
    0.6666669847440474    0.3333329859851446    0.3698828799751928    Br1
    0.3333329854322145    0.6666669831836742    0.6301171200248072    Cl1
    0.0000000000000000    0.0000000000000000    0.5043730688652358     N1
    0.3333329854322145    0.6666669831836742    0.4506589465546376     Y1
    0.6666669847440474    0.3333329859851446    0.5573177166061577     Y2
