Ti-Ti-C-OCl-Cl
   1.000
    3.1207515811317821    0.0000000000000000    0.0000000000000000
   -1.5603757905658910    2.7026501481578578    0.0000000000000000
    0.0000000000000000    0.0000000000000000   27.5526181972392159
   C    Cl   O    Ti
    1    2    1    2
Direct
    0.0000000000000000    0.0000000000000000    0.4292691020270673     C1
    0.3333329854322145    0.6666669831836743    0.6733522768844593    Cl1
    0.6666669847440474    0.3333329859851446    0.3266477231155406    Cl2
    0.3333329854322145    0.6666669831836743    0.5097489451844883     O1
    0.3333329854322145    0.6666669831836743    0.3887504147330386    Ti1
    0.6666669847440474    0.3333329859851446    0.4781248138793056    Ti2
