Hf-Hf-C-NCS-SCN
   1.000
    3.4475026608430706    0.0000000000000000    0.0000000000000000
   -1.7237513304215353    2.9856248839052983    0.0000000000000000
    0.0000000000000000    0.0000000000000000   29.0615594874784655
   C    Hf   N    S 
    3    2    2    2
Direct
    0.0000000000000000    0.0000000000000000    0.5074784251553364     C1
    0.3333329854322145    0.6666669831836742    0.6368677479480984     C2
    0.6666669847440474    0.3333329859851446    0.3506416342895971     C3
    0.3333329854322145    0.6666669831836742    0.4658071984951106    Hf1
    0.6666669847440474    0.3333329859851446    0.5469585668987815    Hf2
    0.3333329854322145    0.6666669831836742    0.5936164432889273     N1
    0.6666669847440474    0.3333329859851446    0.3096874413734665     N2
    0.3333329854322145    0.6666669831836742    0.6903125586265335     S1
    0.6666669847440474    0.3333329859851446    0.4086868774674055     S2
