Ti-Ti-N-PO-O
   1.000
    3.0706901903423480    0.0000000000000000    0.0000000000000000
   -1.5353450951711740    2.6592957119879816    0.0000000000000000
    0.0000000000000000    0.0000000000000000   24.6546489028444853
   N    O    P    Ti
    1    2    1    2
Direct
    0.0000000000000000    0.0000000000000000    0.4528354801466141     N1
    0.3333329854322145    0.6666669831836742    0.6349572838994417     O1
    0.6666669847440475    0.3333329859851446    0.3650427161005583     O2
    0.3333329854322145    0.6666669831836742    0.5745534724495758     P1
    0.3333329854322145    0.6666669831836742    0.4018484926971598    Ti1
    0.6666669847440475    0.3333329859851446    0.4998600579902536    Ti2
