Y-Y-N-NCS-Br
   1.000
    3.6302274045642822    0.0000000000000000    0.0000000000000000
   -1.8151137022821411    3.1438691538726595    0.0000000000000000
    0.0000000000000000    0.0000000000000000   26.7652280823245263
   Br   C    N    S    Y 
    1    1    2    1    2
Direct
    0.6666669847440474    0.3333329859851447    0.3362571756279374    Br1
    0.3333329854322145    0.6666669831836742    0.6054955069766725     C1
    0.0000000000000000    0.0000000000000000    0.4586714750356115     N1
    0.3333329854322145    0.6666669831836742    0.5588304806862112     N2
    0.3333329854322145    0.6666669831836742    0.6637428243720627     S1
    0.3333329854322145    0.6666669831836742    0.4099649818281916     Y1
    0.6666669847440474    0.3333329859851447    0.5078615151459487     Y2
