Ti-Ti-C-NCS-NCS
   1.000
    3.2326742145302840    0.0000000000000000    0.0000000000000000
   -1.6163371072651420    2.7995779919454749    0.0000000000000000
    0.0000000000000000    0.0000000000000000   28.4060384472214444
   C    N    S    Ti
    3    2    2    2
Direct
    0.0000000000000000    0.0000000000000000    0.5000000317042744     C1
    0.3333329854322145    0.6666669831836742    0.6285374034026689     C2
    0.6666669847440474    0.3333329859851446    0.3714625965973308     C3
    0.3333329854322145    0.6666669831836742    0.5844712488177111     N1
    0.6666669847440474    0.3333329859851446    0.4155287516519813     N2
    0.3333329854322145    0.6666669831836742    0.6831659572410267     S1
    0.6666669847440474    0.3333329859851446    0.3168340427589733     S2
    0.3333329854322145    0.6666669831836742    0.4605657751331771    Ti1
    0.6666669847440474    0.3333329859851446    0.5394342248668138    Ti2
