Y-Y-C-Br-OH
   1.000
    3.6847830598664850    0.0000000000000000    0.0000000000000000
   -1.8423915299332425    3.1911157373141772    0.0000000000000000
    0.0000000000000000    0.0000000000000000   24.9425664729272327
   Br   C    H    O    Y 
    1    1    1    1    2
Direct
    0.3333329854322146    0.6666669831836743    0.6391710528357761    Br1
    0.0000000000000000    0.0000000000000000    0.5061168051627926     C1
    0.6666669847440474    0.3333329859851447    0.3608289471642238     H1
    0.6666669847440474    0.3333329859851447    0.4003769100088376     O1
    0.3333329854322146    0.6666669831836743    0.4509557750152006     Y1
    0.6666669847440474    0.3333329859851447    0.5598075456712457     Y2
