Sc-Sc-C-H-OH
   1.000
    3.3077231583260138    0.0000000000000000    0.0000000000000000
   -1.6538615791630069    2.8645722837858520    0.0000000000000000
    0.0000000000000000    0.0000000000000000   23.7646257576087088
   C    H    O    Sc
    1    2    1    2
Direct
    0.0000000000000000    0.0000000000000000    0.5256710530743958     C1
    0.3333329854322145    0.6666669831836742    0.6212858518456377     H1
    0.6666669847440474    0.3333329859851446    0.3787141481543624     H2
    0.6666669847440474    0.3333329859851446    0.4200828762498700     O1
    0.3333329854322145    0.6666669831836742    0.4719525206696183    Sc1
    0.6666669847440474    0.3333329859851446    0.5780490636754747    Sc2
