Hf-Hf-C-F-H
   1.000
    3.3130776923488594    0.0000000000000000    0.0000000000000000
   -1.6565388461744297    2.8692094462840525    0.0000000000000000
    0.0000000000000000    0.0000000000000000   22.7178819533222480
   C    F    H    Hf
    1    1    1    2
Direct
    0.0000000000000000    0.0000000000000000    0.4952242986922624     C1
    0.3333329854322145    0.6666669831836742    0.6038363075179267     F1
    0.6666669847440475    0.3333329859851446    0.3961636924820734     H1
    0.3333329854322145    0.6666669831836742    0.4392600568130256    Hf1
    0.6666669847440475    0.3333329859851446    0.5459183411079367    Hf2
