Sc-Sc-C-OCl-OH
   1.000
    3.3628228899286556    0.0000000000000000    0.0000000000000000
   -1.6814114449643278    2.9122900510837062    0.0000000000000000
    0.0000000000000000    0.0000000000000000   25.5896009105471798
   C    Cl   H    O    Sc
    1    1    1    2    2
Direct
    0.0000000000000000    0.0000000000000000    0.4866709727528846     C1
    0.3333329854322145    0.6666669831836743    0.6482946322038770    Cl1
    0.6666669847440474    0.3333329859851447    0.3517053677961229     H1
    0.3333329854322145    0.6666669831836743    0.5803316782587673     O1
    0.6666669847440474    0.3333329859851447    0.3901534670371600     O2
    0.3333329854322145    0.6666669831836743    0.4378156181022490    Sc1
    0.6666669847440474    0.3333329859851447    0.5362625935955109    Sc2
