Sc-Sc-N-CN-OCl
   1.000
    3.2939581530957414    0.0000000000000000    0.0000000000000000
   -1.6469790765478707    2.8526514395838598    0.0000000000000000
    0.0000000000000000    0.0000000000000000   28.0965694638254284
   C    Cl   N    O    Sc
    1    1    2    1    2
Direct
    0.3333329854322145    0.6666669831836742    0.6370856199815105     C1
    0.6666669847440474    0.3333329859851446    0.3203238036439849    Cl1
    0.0000000000000000    0.0000000000000000    0.5473742881992023     N1
    0.3333329854322145    0.6666669831836742    0.6796761963560151     N2
    0.6666669847440474    0.3333329859851446    0.4659568533295274     O1
    0.3333329854322145    0.6666669831836742    0.4900830785007665    Sc1
    0.6666669847440474    0.3333329859851446    0.5832618941841173    Sc2
