Zr-Zr-N-CN-O
   1.000
    3.2988843393865368    0.0000000000000000    0.0000000000000000
   -1.6494421696932684    2.8569176420551643    0.0000000000000000
    0.0000000000000000    0.0000000000000000   24.2974718648815724
   C    N    O    Zr
    1    2    1    2
Direct
    0.3333329854322145    0.6666669831836742    0.5799149097023035     C1
    0.0000000000000000    0.0000000000000000    0.4640542053083150     N1
    0.3333329854322145    0.6666669831836742    0.6295910928491215     N2
    0.6666669847440474    0.3333329859851447    0.3704089071508785     O1
    0.3333329854322145    0.6666669831836742    0.4103433670501728    Zr1
    0.6666669847440474    0.3333329859851447    0.5185480520169061    Zr2
