Hf-Hf-N-O-H
   1.000
    3.1998025665902006    0.0000000000000000    0.0000000000000000
   -1.5999012832951003    2.7711103097549508    0.0000000000000000
    0.0000000000000000    0.0000000000000000   22.5420390917326046
   H    Hf   N    O 
    1    2    1    1
Direct
    0.6666669847440474    0.3333329859851446    0.3992540321385917     H1
    0.3333329854322144    0.6666669831836741    0.4410996362390149    Hf1
    0.6666669847440474    0.3333329859851446    0.5568642379893056    Hf2
    0.0000000000000000    0.0000000000000000    0.5002713877827174     N1
    0.3333329854322144    0.6666669831836741    0.6007459678614082     O1
