Ti-Ti-N-SCN-F
   1.000
    3.3098821098451010    0.0000000000000000    0.0000000000000000
   -1.6549410549225505    2.8664419906518517    0.0000000000000000
    0.0000000000000000    0.0000000000000000   25.6373985813627314
   C    F    N    S    Ti
    1    1    2    1    2
Direct
    0.3333329854322145    0.6666669831836742    0.6024906771122358     C1
    0.6666669847440472    0.3333329859851445    0.3510496578440921     F1
    0.0000000000000000    0.0000000000000000    0.4342075299851666     N1
    0.3333329854322145    0.6666669831836742    0.6489503421559080     N2
    0.3333329854322145    0.6666669831836742    0.5370015813549802     S1
    0.3333329854322145    0.6666669831836742    0.3971512963380779    Ti1
    0.6666669847440472    0.3333329859851445    0.4766281250230965    Ti2
