Y-Y-C-NCS-PO
   1.000
    3.6512821420737960    0.0000000000000000    0.0000000000000000
   -1.8256410710368980    3.1621030914458159    0.0000000000000000
    0.0000000000000000    0.0000000000000000   28.5027621516299838
   C    N    O    P    S    Y 
    2    1    1    1    1    2
Direct
    0.0000000000000000    0.0000000000000000    0.4892666631253649     C1
    0.3333329854322146    0.6666669831836742    0.6295418289513648     C2
    0.3333329854322146    0.6666669831836742    0.5857577192358787     N1
    0.6666669847440475    0.3333329859851447    0.3157588710919134     O1
    0.6666669847440475    0.3333329859851447    0.3683221853894726     P1
    0.3333329854322146    0.6666669831836742    0.6842411289080866     S1
    0.3333329854322146    0.6666669831836742    0.4426978639565738     Y1
    0.6666669847440475    0.3333329859851447    0.5377056410855342     Y2
