Zr-Zr-C-SCN-OH
   1.000
    3.4567791879380194    0.0000000000000000    0.0000000000000000
   -1.7283895939690097    2.9936585920152399    0.0000000000000000
    0.0000000000000000    0.0000000000000000   27.3310897712668002
   C    H    N    O    S    Zr
    2    1    1    1    1    2
Direct
    0.0000000000000000    0.0000000000000000    0.4568331059028518     C1
    0.3333329854322146    0.6666669831836742    0.6271438168809989     C2
    0.6666669847440474    0.3333329859851445    0.3292953217497280     H1
    0.3333329854322146    0.6666669831836742    0.6707046782502720     N1
    0.6666669847440474    0.3333329859851445    0.3653780271520887     O1
    0.3333329854322146    0.6666669831836742    0.5656095654002536     S1
    0.3333329854322146    0.6666669831836742    0.4145548228188383    Zr1
    0.6666669847440474    0.3333329859851445    0.5031621354058770    Zr2
