Y-Y-N-SCN-H
   1.000
    3.6221348831720950    0.0000000000000000    0.0000000000000000
   -1.8110674415860475    3.1368608247652050    0.0000000000000000
    0.0000000000000000    0.0000000000000000   26.2265359667031248
   C    H    N    S    Y 
    1    1    2    1    2
Direct
    0.3333329854322145    0.6666669831836742    0.6114584286420001     C1
    0.6666669847440474    0.3333329859851447    0.3431638860513750     H1
    0.0000000000000000    0.0000000000000000    0.4303040367808657     N1
    0.3333329854322145    0.6666669831836742    0.6568361139486250     N2
    0.3333329854322145    0.6666669831836742    0.5475534410597014     S1
    0.3333329854322145    0.6666669831836742    0.3806570841783563     Y1
    0.6666669847440474    0.3333329859851447    0.4806012876824239     Y2
