Ti-Ti-C-OCl-Br
   1.000
    3.1563085711735694    0.0000000000000000    0.0000000000000000
   -1.5781542855867847    2.7334434048162892    0.0000000000000000
    0.0000000000000000    0.0000000000000000   27.0335768318884178
   Br   C    Cl   O    Ti
    1    1    1    1    2
Direct
    0.6666669847440474    0.3333329859851446    0.3329193194066620    Br1
    0.0000000000000000    0.0000000000000000    0.4424149685487831     C1
    0.3333329854322145    0.6666669831836742    0.6670806805933380    Cl1
    0.3333329854322145    0.6666669831836742    0.5238229697163242     O1
    0.3333329854322145    0.6666669831836742    0.4022838318395618    Ti1
    0.6666669847440474    0.3333329859851446    0.4926662127785640    Ti2
