Y-Y-C-H-OCN
   1.000
    3.6327877978407286    0.0000000000000000    0.0000000000000000
   -1.8163938989203643    3.1460865194853977    0.0000000000000000
    0.0000000000000000    0.0000000000000000   25.5691340618042346
   C    H    N    O    Y 
    2    1    1    1    2
Direct
    0.0000000000000000    0.0000000000000000    0.5540638744808978     C1
    0.6666669847440473    0.3333329859851446    0.3984989156579623     C2
    0.3333329854322145    0.6666669831836742    0.6480131091555263     H1
    0.6666669847440473    0.3333329859851446    0.3519868908444735     N1
    0.6666669847440473    0.3333329859851446    0.4506273975649067     O1
    0.3333329854322145    0.6666669831836742    0.5007974969174280     Y1
    0.6666669847440473    0.3333329859851446    0.6076731160862094     Y2
