Hf-Hf-N-SCN-PO
   1.000
    3.3461620052520762    0.0000000000000000    0.0000000000000000
   -1.6730810026260381    2.8978613017191046    0.0000000000000000
    0.0000000000000000    0.0000000000000000   28.3978644232347932
   C    Hf   N    O    P    S 
    1    2    2    1    1    1
Direct
    0.3333329854322143    0.6666669831836741    0.6411587095795462     C1
    0.3333329854322143    0.6666669831836741    0.4364901694150848    Hf1
    0.6666669847440474    0.3333329859851446    0.5230003114068734    Hf2
    0.0000000000000000    0.0000000000000000    0.4777719396121570     N1
    0.3333329854322143    0.6666669831836741    0.6830747599232742     N2
    0.6666669847440474    0.3333329859851446    0.3169252400767258     O1
    0.6666669847440474    0.3333329859851446    0.3696179346473660     P1
    0.3333329854322143    0.6666669831836741    0.5810787983834264     S1
