 La-La-C-F-Cl                           
   1.0000000000000000     
     3.9331114644726264    0.0000000000000008    0.0000000000000003
    -1.9665557322363123    3.4061744441471031    0.0000000000000002
     0.0000000000000037    0.0000000000000055   22.5328496747543987
   C    Cl   F    La
     1     1     1     2
Direct
 -0.0000000000000000 -0.0000000000000000  0.5111116110005700
  0.6666669847440474  0.3333329859851446  0.3643033434074382
  0.3333329854322145  0.6666669831836742  0.6262779554612586
  0.3333329854322145  0.6666669831836742  0.4460239100309641
  0.6666669847440474  0.3333329859851446  0.5778325397902133

  0.00000000E+00  0.00000000E+00  0.00000000E+00
  0.00000000E+00  0.00000000E+00  0.00000000E+00
  0.00000000E+00  0.00000000E+00  0.00000000E+00
  0.00000000E+00  0.00000000E+00  0.00000000E+00
  0.00000000E+00  0.00000000E+00  0.00000000E+00
