Hf-Hf-C-NCS-Cl
   1.000
    3.3837058301410292    0.0000000000000000    0.0000000000000000
   -1.6918529150705146    2.9303752078251346    0.0000000000000000
    0.0000000000000000    0.0000000000000000   26.3375415389557155
   C    Cl   Hf   N    S 
    2    1    2    1    1
Direct
    0.0000000000000000    0.0000000000000000    0.4541815429407328     C1
    0.3333329854322145    0.6666669831836742    0.5993505800931538     C2
    0.6666669847440473    0.3333329859851446    0.3417175436320868    Cl1
    0.3333329854322145    0.6666669831836742    0.4097271977547573    Hf1
    0.6666669847440473    0.3333329859851446    0.5002106534748337    Hf2
    0.3333329854322145    0.6666669831836742    0.5515495691406609     N1
    0.3333329854322145    0.6666669831836742    0.6582824563679132     S1
