Ti-Ti-C-NCS-Br
   1.000
    3.2773781272757940    0.0000000000000000    0.0000000000000000
   -1.6386890636378970    2.8382927160284774    0.0000000000000000
    0.0000000000000000    0.0000000000000000   26.1103201160131100
   Br   C    N    S    Ti
    1    2    1    1    2
Direct
    0.6666669847440474    0.3333329859851445    0.3446912929451379    Br1
    0.0000000000000000    0.0000000000000000    0.4563001494834050     C1
    0.3333329854322145    0.6666669831836741    0.5958421721212663     C2
    0.3333329854322145    0.6666669831836741    0.5479158811087486     N1
    0.3333329854322145    0.6666669831836741    0.6553087070548621     S1
    0.3333329854322145    0.6666669831836741    0.4154272890939975    Ti1
    0.6666669847440474    0.3333329859851445    0.4990800905002740    Ti2
