Ti-Ti-N-NO-OCN
   1.000
    3.1249016629210637    0.0000000000000000    0.0000000000000000
   -1.5624508314605319    2.7062442244167348    0.0000000000000000
    0.0000000000000000    0.0000000000000000   27.7650183261587209
   C    N    O    Ti
    1    3    2    2
Direct
    0.6666669847440474    0.3333329859851446    0.3669354441280108     C1
    0.0000000000000000    0.0000000000000000    0.4890513214230010     N1
    0.3333329854322145    0.6666669831836742    0.6039503862502134     N2
    0.6666669847440474    0.3333329859851446    0.3241488946369857     N3
    0.3333329854322145    0.6666669831836742    0.6758511053630143     O1
    0.6666669847440474    0.3333329859851446    0.4148873761499751     O2
    0.3333329854322145    0.6666669831836742    0.4647962778145848    Ti1
    0.6666669847440474    0.3333329859851446    0.6350682466789337    Ti2
