Y-Y-C-SCN-Br
   1.000
    3.8068380976465686    0.0000000000000000    0.0000000000000000
   -1.9034190488232843    3.2968185007579485    0.0000000000000000
    0.0000000000000000    0.0000000000000000   27.1652324006921546
   Br   C    N    S    Y 
    1    2    1    1    2
Direct
    0.6666669847440474    0.3333329859851445    0.3313058348718815    Br1
    0.0000000000000000    0.0000000000000000    0.4509123816516230     C1
    0.3333329854322146    0.6666669831836742    0.6248809897696600     C2
    0.3333329854322146    0.6666669831836742    0.6686941651281186     N1
    0.3333329854322146    0.6666669831836742    0.5632110691877743     S1
    0.3333329854322146    0.6666669831836742    0.4018142263293095     Y1
    0.6666669847440474    0.3333329859851445    0.4998190270102402     Y2
