Ti-Ti-C-NCO-PO
   1.000
    3.1412962166919978    0.0000000000000000    0.0000000000000000
   -1.5706481083459989    2.7204423244673124    0.0000000000000000
    0.0000000000000000    0.0000000000000000   27.4411288496796644
   C    N    O    P    Ti
    2    1    2    1    2
Direct
    0.0000000000000000    0.0000000000000000    0.4924402525874964     C1
    0.3333329854322146    0.6666669831836743    0.6281799191977976     C2
    0.3333329854322146    0.6666669831836743    0.5827397449722780     N1
    0.3333329854322146    0.6666669831836743    0.6720251543112060     O1
    0.6666669847440474    0.3333329859851447    0.3279748456887940     O2
    0.6666669847440474    0.3333329859851447    0.3822761912128071     P1
    0.3333329854322146    0.6666669831836743    0.4504500761328550    Ti1
    0.6666669847440474    0.3333329859851447    0.5342557251298390    Ti2
