Y-Y-N-NCO-NCO
   1.000
    3.5425564557970382    0.0000000000000000    0.0000000000000000
   -1.7712782278985191    3.0679438850470828    0.0000000000000000
    0.0000000000000000    0.0000000000000000   28.4262527776183980
   C    N    O    Y 
    2    3    2    2
Direct
    0.3333329854322146    0.6666669831836743    0.6409902304936277     C1
    0.6666669847440475    0.3333329859851447    0.3590097691155423     C2
    0.0000000000000000    0.0000000000000000    0.5000000261860675     N1
    0.3333329854322146    0.6666669831836743    0.5971521855902642     N2
    0.6666669847440475    0.3333329859851447    0.4028478144097424     N3
    0.3333329854322146    0.6666669831836743    0.6833912626328922     O1
    0.6666669847440475    0.3333329859851447    0.3166087373671078     O2
    0.3333329854322146    0.6666669831836743    0.4533745406148224     Y1
    0.6666669847440475    0.3333329859851447    0.5466254589943407     Y2
