Sc-Sc-C-PO-F
   1.000
    3.3639987517980439    0.0000000000000000    0.0000000000000000
   -1.6819993758990219    2.9133083773524824    0.0000000000000000
    0.0000000000000000    0.0000000000000000   25.0992449998647338
   C    F    O    P    Sc
    1    1    1    1    2
Direct
    0.0000000000000000    0.0000000000000000    0.4532684952335939     C1
    0.6666669847440474    0.3333329859851447    0.3585765229212473     F1
    0.3333329854322145    0.6666669831836742    0.6414234770787526     O1
    0.3333329854322145    0.6666669831836742    0.5818574591630994     P1
    0.3333329854322145    0.6666669831836742    0.4026498576115930    Sc1
    0.6666669847440474    0.3333329859851447    0.5012777131343384    Sc2
