Zr-Zr-N-O-OH
   1.000
    3.2657262861406688    0.0000000000000000    0.0000000000000000
   -1.6328631430703344    2.8282019255996609    0.0000000000000000
    0.0000000000000000    0.0000000000000000   23.9909439030463609
   H    N    O    Zr
    1    1    2    2
Direct
    0.6666669847440474    0.3333329859851446    0.3751415549288656     H1
    0.0000000000000000    0.0000000000000000    0.5283882422758008     N1
    0.3333329854322145    0.6666669831836742    0.6248584450711344     O1
    0.6666669847440474    0.3333329859851446    0.4164923623152965     O2
    0.3333329854322145    0.6666669831836742    0.4737411575819143    Zr1
    0.6666669847440474    0.3333329859851446    0.5831884654106211    Zr2
