Y-Y-N-NCS-OCN
   1.000
    3.5735609151351651    0.0000000000000000    0.0000000000000000
   -1.7867804575675825    3.0947945344716934    0.0000000000000000
    0.0000000000000000    0.0000000000000000   28.6679393982932531
   C    N    O    S    Y 
    2    3    1    1    2
Direct
    0.3333329854322145    0.6666669831836742    0.6317703524967420     C1
    0.6666669847440472    0.3333329859851446    0.3554033972112387     C2
    0.0000000000000000    0.0000000000000000    0.4924902623448938     N1
    0.3333329854322145    0.6666669831836742    0.5881354632730612     N2
    0.6666669847440472    0.3333329859851446    0.3139395502048472     N3
    0.6666669847440472    0.3333329859851446    0.4019209747946678     O1
    0.3333329854322145    0.6666669831836742    0.6860604497951528     S1
    0.3333329854322145    0.6666669831836742    0.4480153071939359     Y1
    0.6666669847440472    0.3333329859851446    0.5403423154043306     Y2
