Y-Y-C-F-OH
   1.000
    3.5982361636647071    0.0000000000000000    0.0000000000000000
   -1.7991180818323536    3.1161639265552048    0.0000000000000000
    0.0000000000000000    0.0000000000000000   24.2193207738569249
   C    F    H    O    Y 
    1    1    1    1    2
Direct
    0.0000000000000000    0.0000000000000000    0.5230037926963957     C1
    0.3333329854322145    0.6666669831836742    0.6283958545313593     F1
    0.6666669847440474    0.3333329859851446    0.3716041454686407     H1
    0.6666669847440474    0.3333329859851446    0.4122730347829145     O1
    0.3333329854322145    0.6666669831836742    0.4659785915762705     Y1
    0.6666669847440474    0.3333329859851446    0.5795707634196597     Y2
