Sc-Sc-N-NCO-Cl
   1.000
    3.3321186228007607    0.0000000000000000    0.0000000000000000
   -1.6660593114003803    2.8856993757588656    0.0000000000000000
    0.0000000000000000    0.0000000000000000   25.8856984141067343
   C    Cl   N    O    Sc
    1    1    2    1    2
Direct
    0.3333329854322145    0.6666669831836742    0.6057879333093131     C1
    0.6666669847440475    0.3333329859851446    0.3476823323837899    Cl1
    0.0000000000000000    0.0000000000000000    0.4597177951660997     N1
    0.3333329854322145    0.6666669831836742    0.5576558248325745     N2
    0.3333329854322145    0.6666669831836742    0.6523176676162101     O1
    0.3333329854322145    0.6666669831836742    0.4133217592176265    Sc1
    0.6666669847440475    0.3333329859851446    0.5060881053048234    Sc2
