Hf-Hf-C-NO-Br
   1.000
    3.4257559756144196    0.0000000000000000    0.0000000000000000
   -1.7128779878072098    2.9667917020417671    0.0000000000000000
    0.0000000000000000    0.0000000000000000   24.7499756672810456
   Br   C    Hf   N    O 
    1    1    2    1    1
Direct
    0.6666669847440474    0.3333329859851446    0.3636367211422277    Br1
    0.0000000000000000    0.0000000000000000    0.4866993719815292     C1
    0.3333329854322145    0.6666669831836742    0.4430815517150365    Hf1
    0.6666669847440474    0.3333329859851446    0.5452328373709108    Hf2
    0.3333329854322145    0.6666669831836742    0.5818639699456862     N1
    0.3333329854322145    0.6666669831836742    0.6363632788577722     O1
