Ti-Ti-C-NO-NCO
   1.000
    3.1836230623065664    0.0000000000000000    0.0000000000000000
   -1.5918115311532832    2.7570984480299821    0.0000000000000000
    0.0000000000000000    0.0000000000000000   26.4332737906456430
   C    N    O    Ti
    2    2    2    2
Direct
    0.0000000000000000    0.0000000000000000    0.5239016468712197     C1
    0.6666669847440474    0.3333329859851446    0.3860295043093132     C2
    0.3333329854322146    0.6666669831836742    0.6098985483849034     N1
    0.6666669847440474    0.3333329859851446    0.4331874494537759     N2
    0.3333329854322146    0.6666669831836742    0.6595200401100157     O1
    0.6666669847440474    0.3333329859851446    0.3404799598899843     O2
    0.3333329854322146    0.6666669831836742    0.4842284695883882    Ti1
    0.6666669847440474    0.3333329859851446    0.5740926748455971    Ti2
