Zr-Zr-C-NCS-Br
   1.000
    3.4674991071038979    0.0000000000000000    0.0000000000000000
   -1.7337495535519489    3.0029423143450229    0.0000000000000000
    0.0000000000000000    0.0000000000000000   26.5809727465264487
   Br   C    N    S    Zr
    1    2    1    1    2
Direct
    0.6666669847440473    0.3333329859851445    0.3385880601821129    Br1
    0.0000000000000000    0.0000000000000000    0.4579099196208026     C1
    0.3333329854322145    0.6666669831836741    0.6028873330644254     C2
    0.3333329854322145    0.6666669831836741    0.5557895455853561     N1
    0.3333329854322145    0.6666669831836741    0.6614119398178870     S1
    0.3333329854322145    0.6666669831836741    0.4127919740129802    Zr1
    0.6666669847440473    0.3333329859851445    0.5038300898001510    Zr2
