Hf-Hf-N-PO-OCN
   1.000
    3.2852062526199144    0.0000000000000000    0.0000000000000000
   -1.6426031263099572    2.8450720714297386    0.0000000000000000
    0.0000000000000000    0.0000000000000000   27.7199696379811833
   C    Hf   N    O    P 
    1    2    2    2    1
Direct
    0.6666669847440474    0.3333329859851446    0.3675011127887521     C1
    0.3333329854322145    0.6666669831836742    0.4658205617384294    Hf1
    0.6666669847440474    0.3333329859851446    0.5521896650205298    Hf2
    0.0000000000000000    0.0000000000000000    0.5047230458182339     N1
    0.6666669847440474    0.3333329859851446    0.3246756802961441     N2
    0.3333329854322145    0.6666669831836742    0.6753243197038559     O1
    0.6666669847440474    0.3333329859851446    0.4159435850104535     O2
    0.3333329854322145    0.6666669831836742    0.6213768381469715     P1
