Hf-Hf-N-OH-OCN
   1.000
    3.3079165269586954    0.0000000000000000    0.0000000000000000
   -1.6539582634793477    2.8647397459446236    0.0000000000000000
    0.0000000000000000    0.0000000000000000   26.4479271958721505
   C    H    Hf   N    O 
    1    1    2    2    2
Direct
    0.6666669847440474    0.3333329859851446    0.3851772737745924     C1
    0.3333329854322145    0.6666669831836742    0.6597086821456212     H1
    0.3333329854322145    0.6666669831836742    0.4875462035970872    Hf1
    0.6666669847440474    0.3333329859851446    0.5737098077740128    Hf2
    0.0000000000000000    0.0000000000000000    0.5302985067590199     N1
    0.6666669847440474    0.3333329859851446    0.3402913178543788     N2
    0.3333329854322145    0.6666669831836742    0.6221093654844569     O1
    0.6666669847440474    0.3333329859851446    0.4358518068127655     O2
