Hf-Hf-C-NCO-Br
   1.000
    3.4003576014491976    0.0000000000000000    0.0000000000000000
   -1.7001788007245988    2.9447960647775537    0.0000000000000000
    0.0000000000000000    0.0000000000000000   26.1844737767123910
   Br   C    Hf   N    O 
    1    2    2    1    1
Direct
    0.6666669847440473    0.3333329859851446    0.3437151373270791    Br1
    0.0000000000000000    0.0000000000000000    0.4638757198298656     C1
    0.3333329854322145    0.6666669831836742    0.6102587099096592     C2
    0.3333329854322145    0.6666669831836742    0.4187754003117476    Hf1
    0.6666669847440473    0.3333329859851446    0.5083934833740753    Hf2
    0.3333329854322145    0.6666669831836742    0.5625469236263074     N1
    0.3333329854322145    0.6666669831836742    0.6562848626729210     O1
