Zr-Zr-N-Cl-OCN
   1.000
    3.4212892995400326    0.0000000000000000    0.0000000000000000
   -1.7106446497700163    2.9629234470974710    0.0000000000000000
    0.0000000000000000    0.0000000000000000   25.9514203474437082
   C    Cl   N    O    Zr
    1    1    2    1    2
Direct
    0.6666669847440473    0.3333329859851446    0.3925839152643088     C1
    0.3333329854322145    0.6666669831836742    0.6531981726045863    Cl1
    0.0000000000000000    0.0000000000000000    0.5393906125743113     N1
    0.6666669847440473    0.3333329859851446    0.3468018273954138     N2
    0.6666669847440473    0.3333329859851446    0.4440437503937136     O1
    0.3333329854322145    0.6666669831836742    0.4965026072049611    Zr1
    0.6666669847440473    0.3333329859851446    0.5842931498234862    Zr2
