Sc-Sc-C-NO-O
   1.000
    3.3196423515611757    0.0000000000000000    0.0000000000000000
   -1.6598211757805879    2.8748946079298743    0.0000000000000000
    0.0000000000000000    0.0000000000000000   24.1478937560950477
   C    N    O    Sc
    1    1    2    2
Direct
    0.0000000000000000    0.0000000000000000    0.4717754874656202     C1
    0.3333329854322145    0.6666669831836742    0.5745259357892570     N1
    0.3333329854322145    0.6666669831836742    0.6272966872016175     O1
    0.6666669847440475    0.3333329859851446    0.3727033127983824     O2
    0.3333329854322145    0.6666669831836742    0.4015394208321849    Sc1
    0.6666669847440475    0.3333329859851446    0.5186476561897930    Sc2
