Zr-Zr-N-CN-SCN
   1.000
    3.4742867847223757    0.0000000000000000    0.0000000000000000
   -1.7371433923611879    3.0088206155769881    0.0000000000000000
    0.0000000000000000    0.0000000000000000   27.5229549905235409
   C    N    S    Zr
    2    3    1    2
Direct
    0.3333329854322146    0.6666669831836743    0.6291862939938382     C1
    0.6666669847440474    0.3333329859851446    0.3702699362214850     C2
    0.0000000000000000    0.0000000000000000    0.5359888354628319     N1
    0.3333329854322146    0.6666669831836743    0.6730002282422509     N2
    0.6666669847440474    0.3333329859851446    0.3269997717577491     N3
    0.6666669847440474    0.3333329859851446    0.4314132303118787     S1
    0.3333329854322146    0.6666669831836743    0.4923626229425592    Zr1
    0.6666669847440474    0.3333329859851446    0.5762347115008329    Zr2
