Sc-Sc-N-H-H
   1.000
    3.1972251802388985    0.0000000000000000    0.0000000000000000
   -1.5986125901194492    2.7688782277047439    0.0000000000000000
    0.0000000000000000    0.0000000000000000   22.5103627547056000
   H    N    Sc
    2    1    2
Direct
    0.3333329854322145    0.6666669831836742    0.6001841419406435     H1
    0.6666669847440473    0.3333329859851446    0.3998158580593565     H2
    0.0000000000000000    0.0000000000000000    0.5000000405970483     N1
    0.3333329854322145    0.6666669831836742    0.4452269162763896    Sc1
    0.6666669847440473    0.3333329859851446    0.5547730831176737    Sc2
