Zr-Zr-N-O-O
   1.000
    3.2841077401947687    0.0000000000000000    0.0000000000000000
   -1.6420538700973843    2.8441207317409023    0.0000000000000000
    0.0000000000000000    0.0000000000000000   22.6881384844624705
   N    O    Zr
    1    2    2
Direct
    0.0000000000000000    0.0000000000000000    0.5000000381759404     N1
    0.3333329854322145    0.6666669831836742    0.6033169488028525     O1
    0.6666669847440474    0.3333329859851446    0.3966830511971475     O2
    0.3333329854322145    0.6666669831836742    0.4400459964573136    Zr1
    0.6666669847440474    0.3333329859851446    0.5599540029728861    Zr2
