Zr-Zr-N-F-OH
   1.000
    3.3669642724576194    0.0000000000000000    0.0000000000000000
   -1.6834821362288097    2.9158765935783979    0.0000000000000000
    0.0000000000000000    0.0000000000000000   23.9538642140916345
   F    H    N    O    Zr
    1    1    1    1    2
Direct
    0.3333329854322144    0.6666669831836742    0.6242777399270110     F1
    0.6666669847440474    0.3333329859851446    0.3757222600729889     H1
    0.0000000000000000    0.0000000000000000    0.5216699467511419     N1
    0.6666669847440474    0.3333329859851446    0.4170165006368723     O1
    0.3333329854322144    0.6666669831836742    0.4721127597039717    Zr1
    0.6666669847440474    0.3333329859851446    0.5691442402348785    Zr2
