Sc-Sc-C-CN-OCN
   1.000
    3.3896442633236399    0.0000000000000000    0.0000000000000000
   -1.6948221316618199    2.9355180418333453    0.0000000000000000
    0.0000000000000000    0.0000000000000000   26.8613503004888514
   C    N    O    Sc
    3    2    1    2
Direct
    0.0000000000000000    0.0000000000000000    0.5208411442346039     C1
    0.3333329854322145    0.6666669831836742    0.6203171693517450     C2
    0.6666669847440474    0.3333329859851446    0.3793015115592411     C3
    0.3333329854322145    0.6666669831836742    0.6649461066059584     N1
    0.6666669847440474    0.3333329859851446    0.3350538933940416     N2
    0.6666669847440474    0.3333329859851446    0.4290951005935939     O1
    0.3333329854322145    0.6666669831836742    0.4742847952770127    Sc1
    0.6666669847440474    0.3333329859851446    0.5671725935791713    Sc2
