Zr-Zr-C-H-H
   1.000
    3.3203242760353504    0.0000000000000000    0.0000000000000000
   -1.6601621380176752    2.8754851718449483    0.0000000000000000
    0.0000000000000000    0.0000000000000000   22.5669460430634601
   C    H    Zr
    1    2    2
Direct
    0.0000000000000000    0.0000000000000000    0.5000000375482421     C1
    0.3333329854322146    0.6666669831836742    0.6011866212279804     H1
    0.6666669847440474    0.3333329859851446    0.3988133787720197     H2
    0.3333329854322146    0.6666669831836742    0.4442906590806808    Zr1
    0.6666669847440474    0.3333329859851446    0.5557093403588876    Zr2
