Hf-Hf-N-O-OCN
   1.000
    3.2336532651095382    0.0000000000000000    0.0000000000000000
   -1.6168266325547691    2.8004258746151036    0.0000000000000000
    0.0000000000000000    0.0000000000000000   25.4570717060197786
   C    Hf   N    O 
    1    2    2    2
Direct
    0.6666669847440475    0.3333329859851447    0.4001616019375518     C1
    0.3333329854322145    0.6666669831836743    0.5082957403439977    Hf1
    0.6666669847440475    0.3333329859851447    0.6080845632887933    Hf2
    0.0000000000000000    0.0000000000000000    0.5576510281845990     N1
    0.6666669847440475    0.3333329859851447    0.3535363416473306     N2
    0.3333329854322145    0.6666669831836743    0.6464636583526695     O1
    0.6666669847440475    0.3333329859851447    0.4528906758670254     O2
