Y-Y-N-NCS-H
   1.000
    3.5456036927379602    0.0000000000000000    0.0000000000000000
   -1.7728018463689801    3.0705828696599791    0.0000000000000000
    0.0000000000000000    0.0000000000000000   25.8929531675160263
   C    H    N    S    Y 
    1    1    2    1    2
Direct
    0.3333329854322145    0.6666669831836742    0.5922635243638805     C1
    0.6666669847440474    0.3333329859851446    0.3475849178644844     H1
    0.0000000000000000    0.0000000000000000    0.4392999223422751     N1
    0.3333329854322145    0.6666669831836742    0.5440677583910069     N2
    0.3333329854322145    0.6666669831836742    0.6524150821355155     S1
    0.3333329854322145    0.6666669831836742    0.3870049990739985     Y1
    0.6666669847440474    0.3333329859851446    0.4899902325931918     Y2
