Zr-Zr-C-PO-OCN
   1.000
    3.3370513968474214    0.0000000000000000    0.0000000000000000
   -1.6685256984237107    2.8899712833964162    0.0000000000000000
    0.0000000000000000    0.0000000000000000   27.9602679639723704
   C    N    O    P    Zr
    2    1    2    1    2
Direct
    0.0000000000000000    0.0000000000000000    0.5062892387408726     C1
    0.6666669847440474    0.3333329859851446    0.3643761776436294     C2
    0.6666669847440474    0.3333329859851446    0.3218853271219276     N1
    0.3333329854322145    0.6666669831836742    0.6781146728780724     O1
    0.6666669847440474    0.3333329859851446    0.4121914696604831     O2
    0.3333329854322145    0.6666669831836742    0.6247642763852048     P1
    0.3333329854322145    0.6666669831836742    0.4620656434661644    Zr1
    0.6666669847440474    0.3333329859851446    0.5529722491186236    Zr2
