Hf-Hf-N-NCO-SCN
   1.000
    3.3952023626635297    0.0000000000000000    0.0000000000000000
   -1.6976011813317649    2.9403314970480952    0.0000000000000000
    0.0000000000000000    0.0000000000000000   28.6700725035852884
   C    Hf   N    O    S 
    2    2    3    1    1
Direct
    0.3333329854322146    0.6666669831836743    0.6440714320788227     C1
    0.6666669847440474    0.3333329859851446    0.3554348246970278     C2
    0.3333329854322146    0.6666669831836743    0.4712595176958294    Hf1
    0.6666669847440474    0.3333329859851446    0.5519664528251729    Hf2
    0.0000000000000000    0.0000000000000000    0.5159098511018195     N1
    0.3333329854322146    0.6666669831836743    0.6003984283142898     N2
    0.6666669847440474    0.3333329859851446    0.3139161925340272     N3
    0.3333329854322146    0.6666669831836743    0.6860838074659728     O1
    0.6666669847440474    0.3333329859851446    0.4145483678395646     S1
