Sc-Sc-N-NCO-NCS
   1.000
    3.3275586532582846    0.0000000000000000    0.0000000000000000
   -1.6637793266291423    2.8817503263017881    0.0000000000000000
    0.0000000000000000    0.0000000000000000   28.2933375047614710
   C    N    O    S    Sc
    2    3    1    1    2
Direct
    0.3333329854322145    0.6666669831836741    0.6393233371627335     C1
    0.6666669847440474    0.3333329859851446    0.3729421605827858     C2
    0.0000000000000000    0.0000000000000000    0.5061806478191105     N1
    0.3333329854322145    0.6666669831836741    0.5953073348598977     N2
    0.6666669847440474    0.3333329859851446    0.4172362427633233     N3
    0.3333329854322145    0.6666669831836741    0.6819039111774851     O1
    0.6666669847440474    0.3333329859851446    0.3180960888225149     S1
    0.3333329854322145    0.6666669831836741    0.4620608623806386    Sc1
    0.6666669847440474    0.3333329859851446    0.5479910551253996    Sc2
