Y-Y-C-OCl-NCS
   1.000
    3.7962192398726375    0.0000000000000000    0.0000000000000000
   -1.8981096199363188    3.2876223000342892    0.0000000000000000
    0.0000000000000000    0.0000000000000000   27.0452246720833038
   C    Cl   N    O    S    Y 
    2    1    1    1    1    2
Direct
    0.0000000000000000    0.0000000000000000    0.5398171655869456     C1
    0.6666669847440474    0.3333329859851445    0.3905547356003237     C2
    0.3333329854322145    0.6666669831836742    0.6672240623206948    Cl1
    0.6666669847440474    0.3333329859851445    0.4366823904334191     N1
    0.3333329854322145    0.6666669831836742    0.5635760947570573     O1
    0.6666669847440474    0.3333329859851445    0.3327759376793052     S1
    0.3333329854322145    0.6666669831836742    0.4867768962261612     Y1
    0.6666669847440474    0.3333329859851445    0.5981154366146422     Y2
