Zr-Zr-N-Cl-OH
   1.000
    3.3894807030617886    0.0000000000000000    0.0000000000000000
   -1.6947403515308943    2.9353763944814246    0.0000000000000000
    0.0000000000000000    0.0000000000000000   24.4236902249156600
   Cl   H    N    O    Zr
    1    1    1    1    2
Direct
    0.3333329854322145    0.6666669831836742    0.6315053164726634    Cl1
    0.6666669847440473    0.3333329859851446    0.3684946835273367     H1
    0.0000000000000000    0.0000000000000000    0.5092885633531319     N1
    0.6666669847440473    0.3333329859851446    0.4090021291404690     O1
    0.3333329854322145    0.6666669831836742    0.4625993486877618    Zr1
    0.6666669847440473    0.3333329859851446    0.5576450925323735    Zr2
