Hf-Hf-N-OH-OH
   1.000
    3.2603087189268813    0.0000000000000000    0.0000000000000000
   -1.6301543594634407    2.8235101747647899    0.0000000000000000
    0.0000000000000000    0.0000000000000000   24.9481930428271284
   H    Hf   N    O 
    2    2    1    2
Direct
    0.3333329854322145    0.6666669831836742    0.6392524306449683     H1
    0.6666669847440474    0.3333329859851446    0.3607475693550318     H2
    0.3333329854322145    0.6666669831836742    0.4527948360184018    Hf1
    0.6666669847440474    0.3333329859851446    0.5472051634558324    Hf2
    0.0000000000000000    0.0000000000000000    0.5000000352262903     N1
    0.3333329854322145    0.6666669831836742    0.5993085627186077     O1
    0.6666669847440474    0.3333329859851446    0.4006914372814016     O2
