Zr-Zr-N-OCl-NCO
   1.000
    3.2794949999875884    0.0000000000000000    0.0000000000000000
   -1.6397474999937942    2.8401259815733289    0.0000000000000000
    0.0000000000000000    0.0000000000000000   28.9780116107587808
   C    Cl   N    O    Zr
    1    1    2    2    2
Direct
    0.6666669847440474    0.3333329859851446    0.3521359270668621     C1
    0.3333329854322145    0.6666669831836741    0.6894196841077069    Cl1
    0.0000000000000000    0.0000000000000000    0.4911367790488221     N1
    0.6666669847440474    0.3333329859851446    0.3952295204349157     N2
    0.3333329854322145    0.6666669831836741    0.5691397885009146     O1
    0.6666669847440474    0.3333329859851446    0.3105803158922931     O2
    0.3333329854322145    0.6666669831836741    0.4455116563030250    Zr1
    0.6666669847440474    0.3333329859851446    0.5369200370975675    Zr2
