Ti-Ti-C-CN-NCO
   1.000
    3.1718244321165234    0.0000000000000000    0.0000000000000000
   -1.5859122160582617    2.7468805345631773    0.0000000000000000
    0.0000000000000000    0.0000000000000000   26.6448350637165703
   C    N    O    Ti
    3    2    1    2
Direct
    0.0000000000000000    0.0000000000000000    0.5218262199741410     C1
    0.3333329854322145    0.6666669831836742    0.6170548759858785     C2
    0.6666669847440474    0.3333329859851446    0.3829568751905820     C3
    0.3333329854322145    0.6666669831836742    0.6622234673820260     N1
    0.6666669847440474    0.3333329859851446    0.4297623868215384     N2
    0.6666669847440474    0.3333329859851446    0.3377765326179741     O1
    0.3333329854322145    0.6666669831836742    0.4798552219371799    Ti1
    0.6666669847440474    0.3333329859851446    0.5645364798619052    Ti2
