Ti-Ti-C-CN-OCN
   1.000
    3.1713939427704871    0.0000000000000000    0.0000000000000000
   -1.5856969713852436    2.7465077198429664    0.0000000000000000
    0.0000000000000000    0.0000000000000000   26.6603330606196529
   C    N    O    Ti
    3    2    1    2
Direct
    0.0000000000000000    0.0000000000000000    0.5219108796078126     C1
    0.3333329854322145    0.6666669831836742    0.6172678795453792     C2
    0.6666669847440474    0.3333329859851446    0.3821460104820650     C3
    0.3333329854322145    0.6666669831836742    0.6624198212551957     N1
    0.6666669847440474    0.3333329859851446    0.3375801787448043     N2
    0.6666669847440474    0.3333329859851446    0.4322393906369447     O1
    0.3333329854322145    0.6666669831836742    0.4805434502243574    Ti1
    0.6666669847440474    0.3333329859851446    0.5648413131815093    Ti2
