Zr-Zr-C-F-OCN
   1.000
    3.3861033564582921    0.0000000000000000    0.0000000000000000
   -1.6930516782291460    2.9324515265359676    0.0000000000000000
    0.0000000000000000    0.0000000000000000   25.6460617615002739
   C    F    N    O    Zr
    2    1    1    1    2
Direct
    0.0000000000000000    0.0000000000000000    0.5512804912797460     C1
    0.6666669847440474    0.3333329859851446    0.3972580820082084     C2
    0.3333329854322145    0.6666669831836742    0.6490689259155279     F1
    0.6666669847440474    0.3333329859851446    0.3509310740844721     N1
    0.6666669847440474    0.3333329859851446    0.4493101573161196     O1
    0.3333329854322145    0.6666669831836742    0.5034308527620246    Zr1
    0.6666669847440474    0.3333329859851446    0.5982955018263019    Zr2
