Zr-Zr-C-OH-OH
   1.000
    3.3272163328257713    0.0000000000000000    0.0000000000000000
   -1.6636081664128857    2.8814538680976147    0.0000000000000000
    0.0000000000000000    0.0000000000000000   25.2050536899809074
   C    H    O    Zr
    1    2    2    2
Direct
    0.0000000000000000    0.0000000000000000    0.5000000334790982     C1
    0.3333329854322145    0.6666669831836742    0.6429287510870278     H1
    0.6666669847440474    0.3333329859851446    0.3570712489129722     H2
    0.3333329854322145    0.6666669831836742    0.6037083042736701     O1
    0.6666669847440474    0.3333329859851446    0.3962916957263386     O2
    0.3333329854322145    0.6666669831836742    0.4503640435660511    Zr1
    0.6666669847440474    0.3333329859851446    0.5496359559342607    Zr2
