Zr-Zr-N-O-F
   1.000
    3.3136256121196768    0.0000000000000000    0.0000000000000000
   -1.6568128060598384    2.8696839587208967    0.0000000000000000
    0.0000000000000000    0.0000000000000000   22.8825693050615300
   F    N    O    Zr
    1    1    1    2
Direct
    0.6666669847440475    0.3333329859851446    0.3933124764101222     F1
    0.0000000000000000    0.0000000000000000    0.5062335654626670     N1
    0.3333329854322145    0.6666669831836742    0.6066875235898778     O1
    0.3333329854322145    0.6666669831836742    0.4519561043943466    Zr1
    0.6666669847440475    0.3333329859851446    0.5640247701937093    Zr2
