Zr-Zr-N-SCN-H
   1.000
    3.4132105043170111    0.0000000000000000    0.0000000000000000
   -1.7066052521585056    2.9559270051915583    0.0000000000000000
    0.0000000000000000    0.0000000000000000   25.9325165199543193
   C    H    N    S    Zr
    1    1    2    1    2
Direct
    0.3333329854322145    0.6666669831836741    0.6070266920768888     C1
    0.6666669847440475    0.3333329859851446    0.3470546328612097     H1
    0.0000000000000000    0.0000000000000000    0.4284158811550839     N1
    0.3333329854322145    0.6666669831836741    0.6529453671387904     N2
    0.3333329854322145    0.6666669831836741    0.5420880992129634     S1
    0.3333329854322145    0.6666669831836741    0.3851622394584846    Zr1
    0.6666669847440475    0.3333329859851446    0.4767033697166855    Zr2
