Hf-Hf-N-CN-NCO
   1.000
    3.3142828155337742    0.0000000000000000    0.0000000000000000
   -1.6571414077668871    2.8702531135714699    0.0000000000000000
    0.0000000000000000    0.0000000000000000   26.8565728327174895
   C    Hf   N    O 
    2    2    3    1
Direct
    0.3333329854322145    0.6666669831836742    0.6198960113831122     C1
    0.6666669847440473    0.3333329859851446    0.3799639126230300     C2
    0.3333329854322145    0.6666669831836742    0.4793861181048295    Hf1
    0.6666669847440473    0.3333329859851446    0.5653976850243572    Hf2
    0.0000000000000000    0.0000000000000000    0.5215705839564906     N1
    0.3333329854322145    0.6666669831836742    0.6648865044673188     N2
    0.6666669847440473    0.3333329859851446    0.4265637682117037     N3
    0.6666669847440473    0.3333329859851446    0.3351134955326812     O1
