Zr-Zr-C-PO-OH
   1.000
    3.3121864284959277    0.0000000000000000    0.0000000000000000
   -1.6560932142479639    2.8684375891320064    0.0000000000000000
    0.0000000000000000    0.0000000000000000   26.4212289779058374
   C    H    O    P    Zr
    1    1    2    1    2
Direct
    0.0000000000000000    0.0000000000000000    0.4771889991512225     C1
    0.6666669847440474    0.3333329859851446    0.3406351766424661     H1
    0.3333329854322145    0.6666669831836742    0.6593648233575339     O1
    0.6666669847440474    0.3333329859851446    0.3780674058022881     O2
    0.3333329854322145    0.6666669831836742    0.6028978831665752     P1
    0.3333329854322145    0.6666669831836742    0.4294372589246950    Zr1
    0.6666669847440474    0.3333329859851446    0.5267486940121804    Zr2
