Zr-Zr-N-SCN-O
   1.000
    3.3562661580561186    0.0000000000000000    0.0000000000000000
   -1.6781330790280593    2.9066117547315318    0.0000000000000000
    0.0000000000000000    0.0000000000000000   26.1617397464577763
   C    N    O    S    Zr
    1    2    1    1    2
Direct
    0.3333329854322146    0.6666669831836742    0.6104736840603331     C1
    0.0000000000000000    0.0000000000000000    0.4278725890708040     N1
    0.3333329854322146    0.6666669831836742    0.6559861810712121     N2
    0.6666669847440473    0.3333329859851446    0.3440138189287879     O1
    0.3333329854322146    0.6666669831836742    0.5455934845342914     S1
    0.3333329854322146    0.6666669831836742    0.3800220040503204    Zr1
    0.6666669847440473    0.3333329859851446    0.4812570486285003    Zr2
