Y-Y-C-H-OH
   1.000
    3.5996152645851711    0.0000000000000000    0.0000000000000000
   -1.7998076322925856    3.1173582629882080    0.0000000000000000
    0.0000000000000000    0.0000000000000000   24.1146662952500037
   C    H    O    Y 
    1    2    1    2
Direct
    0.0000000000000000    0.0000000000000000    0.5252706702403134     C1
    0.3333329854322145    0.6666669831836742    0.6267831414373426     H1
    0.6666669847440475    0.3333329859851446    0.3732168585626573     H2
    0.6666669847440475    0.3333329859851446    0.4140656199786625     O1
    0.3333329854322145    0.6666669831836742    0.4678312649515669     Y1
    0.6666669847440475    0.3333329859851446    0.5817885370136273     Y2
