Hf-Hf-C-NCO-NCO
   1.000
    3.3270864325682381    0.0000000000000000    0.0000000000000000
   -1.6635432162841191    2.8813413711962794    0.0000000000000000
    0.0000000000000000    0.0000000000000000   28.1675449395466302
   C    Hf   N    O 
    3    2    2    2
Direct
    0.0000000000000000    0.0000000000000000    0.5000000299603093     C1
    0.3333329854322145    0.6666669831836741    0.6377108807246432     C2
    0.6666669847440474    0.3333329859851445    0.3622891188281955     C3
    0.3333329854322145    0.6666669831836741    0.4574148355544581    Hf1
    0.6666669847440474    0.3333329859851445    0.5425851639983728    Hf2
    0.3333329854322145    0.6666669831836741    0.5933545781393867     N1
    0.6666669847440474    0.3333329859851445    0.4066454218606214     N2
    0.3333329854322145    0.6666669831836741    0.6804833357214533     O1
    0.6666669847440474    0.3333329859851445    0.3195166642785468     O2
