Sc-Sc-C-NCS-PO
   1.000
    3.3974820990020849    0.0000000000000000    0.0000000000000000
   -1.6987410495010424    2.9423058066243808    0.0000000000000000
    0.0000000000000000    0.0000000000000000   28.0744494942459895
   C    N    O    P    S    Sc
    2    1    1    1    1    2
Direct
    0.0000000000000000    0.0000000000000000    0.4883519380401361     C1
    0.3333329854322146    0.6666669831836742    0.6240565763726945     C2
    0.3333329854322146    0.6666669831836742    0.5795943346827995     N1
    0.6666669847440475    0.3333329859851446    0.3205761880333432     O1
    0.6666669847440475    0.3333329859851446    0.3738354054260390     P1
    0.3333329854322146    0.6666669831836742    0.6794238119666568     S1
    0.3333329854322146    0.6666669831836742    0.4460531237297078    Sc1
    0.6666669847440475    0.3333329859851446    0.5336112069287972    Sc2
