Sc-Sc-C-NCO-SCN
   1.000
    3.4693238321051143    0.0000000000000000    0.0000000000000000
   -1.7346619160525572    3.0045225725494773    0.0000000000000000
    0.0000000000000000    0.0000000000000000   28.7108450101184971
   C    N    O    S    Sc
    3    2    1    1    2
Direct
    0.0000000000000000    0.0000000000000000    0.5127407481369493     C1
    0.3333329854322146    0.6666669831836742    0.6445793213234867     C2
    0.6666669847440474    0.3333329859851446    0.3549337003966187     C3
    0.3333329854322146    0.6666669831836742    0.6011049860070115     N1
    0.6666669847440474    0.3333329859851446    0.3134703975737443     N2
    0.3333329854322146    0.6666669831836742    0.6865296024262557     O1
    0.6666669847440474    0.3333329859851446    0.4131342914224975     S1
    0.3333329854322146    0.6666669831836742    0.4704135195402202    Sc1
    0.6666669847440474    0.3333329859851446    0.5558870141046814    Sc2
