 Sc-Sc-C-O-F                            
   1.0000000000000000     
     3.2520130450679385    0.0000000000000000    0.0000000000000000
    -1.6260065225339695    2.8163259104630316   -0.0000000000000000
     0.0000000000000020    0.0000000000000025   32.9597622462076529
   C    F    O    Sc
     1     1     1     2
Direct
  0.0000000000000000  0.0000000000000000  0.5004247963748315
  0.6666669847440474  0.3333329859851446  0.4265753909851980
  0.3333329854322145  0.6666669831836742  0.5739936072950114
  0.3333329854322145  0.6666669831836742  0.4617843309990970
  0.6666669847440474  0.3333329859851446  0.5513936977551894

  0.00000000E+00  0.00000000E+00  0.00000000E+00
  0.00000000E+00  0.00000000E+00  0.00000000E+00
  0.00000000E+00  0.00000000E+00  0.00000000E+00
  0.00000000E+00  0.00000000E+00  0.00000000E+00
  0.00000000E+00  0.00000000E+00  0.00000000E+00
