Y-Y-N-CN-Br
   1.000
    3.6376016412359786    0.0000000000000000    0.0000000000000000
   -1.8188008206179893    3.1502554301725652    0.0000000000000000
    0.0000000000000000    0.0000000000000000   25.2629783125232201
   Br   C    N    Y 
    1    1    2    2
Direct
    0.6666669847440474    0.3333329859851446    0.3562525324078108    Br1
    0.3333329854322145    0.6666669831836742    0.5962223064498313     C1
    0.0000000000000000    0.0000000000000000    0.4851085096411670     N1
    0.3333329854322145    0.6666669831836742    0.6437474675921893     N2
    0.3333329854322145    0.6666669831836742    0.4340728779039730     Y1
    0.6666669847440474    0.3333329859851446    0.5377994081213578     Y2
