Y-Y-C-CN-Br
   1.000
    3.7424057540764593    0.0000000000000000    0.0000000000000000
   -1.8712028770382296    3.2410184543418490    0.0000000000000000
    0.0000000000000000    0.0000000000000000   25.2866050935299249
   Br   C    N    Y 
    1    2    1    2
Direct
    0.6666669847440474    0.3333329859851446    0.3559196644512326    Br1
    0.0000000000000000    0.0000000000000000    0.4859678515752641     C1
    0.3333329854322146    0.6666669831836742    0.5966257770519422     C2
    0.3333329854322146    0.6666669831836742    0.6440803355487674     N1
    0.3333329854322146    0.6666669831836742    0.4328399158323054     Y1
    0.6666669847440474    0.3333329859851446    0.5393730748279040     Y2
