Sc-Sc-N-NCO-OCN
   1.000
    3.2910374169222951    0.0000000000000000    0.0000000000000000
   -1.6455187084611476    2.8501220078540879    0.0000000000000000
    0.0000000000000000    0.0000000000000000   27.9869512371481051
   C    N    O    Sc
    2    3    2    2
Direct
    0.3333329854322145    0.6666669831836742    0.6354220149278209     C1
    0.6666669847440473    0.3333329859851447    0.3640127545262738     C2
    0.0000000000000000    0.0000000000000000    0.4992343860176401     N1
    0.3333329854322145    0.6666669831836742    0.5908843142982287     N2
    0.6666669847440473    0.3333329859851447    0.3215784357409381     N3
    0.3333329854322145    0.6666669831836742    0.6784215642590619     O1
    0.6666669847440473    0.3333329859851447    0.4117924149308098     O2
    0.3333329854322145    0.6666669831836742    0.4566661454354941    Sc1
    0.6666669847440473    0.3333329859851447    0.5430781247819342    Sc2
