Sc-Sc-N-NO-NO
   1.000
    3.2838891559283581    0.0000000000000000    0.0000000000000000
   -1.6419445779641790    2.8439314322399598    0.0000000000000000
    0.0000000000000000    0.0000000000000000   25.5398498429145420
   N    O    Sc
    3    2    2
Direct
    0.0000000000000000    0.0000000000000000    0.5000000339178318     N1
    0.3333329854322146    0.6666669831836742    0.5966588541200446     N2
    0.6666669847440474    0.3333329859851446    0.4033411458799555     N3
    0.3333329854322146    0.6666669831836742    0.6476095178571752     O1
    0.6666669847440474    0.3333329859851446    0.3523904821428247     O2
    0.3333329854322146    0.6666669831836742    0.4496384248880120    Sc1
    0.6666669847440474    0.3333329859851446    0.5503615746057426    Sc2
