Ti-Ti-N-CN-OCl
   1.000
    3.0739532816907409    0.0000000000000000    0.0000000000000000
   -1.5369766408453704    2.6621216319907282    0.0000000000000000
    0.0000000000000000    0.0000000000000000   29.2933040021966988
   C    Cl   N    O    Ti
    1    1    2    1    2
Direct
    0.3333329854322145    0.6666669831836742    0.6516112580619606     C1
    0.6666669847440474    0.3333329859851446    0.3072374491906100    Cl1
    0.0000000000000000    0.0000000000000000    0.5638156451414524     N1
    0.3333329854322145    0.6666669831836742    0.6927625508093900     N2
    0.6666669847440474    0.3333329859851446    0.4901735648701446     O1
    0.3333329854322145    0.6666669831836742    0.5209939501782773    Ti1
    0.6666669847440474    0.3333329859851446    0.6035232329233762    Ti2
