Sc-Sc-N-OCl-OH
   1.000
    3.2506163811193987    0.0000000000000000    0.0000000000000000
   -1.6253081905596993    2.8151163640046870    0.0000000000000000
    0.0000000000000000    0.0000000000000000   27.9063880045225723
   Cl   H    N    O    Sc
    1    1    1    2    2
Direct
    0.3333329854322145    0.6666669831836742    0.6774931962337283    Cl1
    0.6666669847440475    0.3333329859851446    0.3225068037662717     H1
    0.0000000000000000    0.0000000000000000    0.4409203106418471     N1
    0.3333329854322145    0.6666669831836742    0.5240465098034515     O1
    0.6666669847440475    0.3333329859851446    0.3576701555514264     O2
    0.3333329854322145    0.6666669831836742    0.4034593477621459    Sc1
    0.6666669847440475    0.3333329859851446    0.4984818861326029    Sc2
