Zr-Zr-C-CN-OH
   1.000
    3.3680028850144104    0.0000000000000000    0.0000000000000000
   -1.6840014425072052    2.9167760584394165    0.0000000000000000
    0.0000000000000000    0.0000000000000000   25.5267261311327900
   C    H    N    O    Zr
    2    1    1    1    2
Direct
    0.0000000000000000    0.0000000000000000    0.4916986695122727     C1
    0.3333329854322145    0.6666669831836742    0.6002476889255255     C2
    0.6666669847440475    0.3333329859851446    0.3525716519136177     H1
    0.3333329854322145    0.6666669831836742    0.6474283480863823     N1
    0.6666669847440475    0.3333329859851446    0.3912134802347833     O1
    0.3333329854322145    0.6666669831836742    0.4439099671596199    Zr1
    0.6666669847440475    0.3333329859851446    0.5415324674165405    Zr2
