Zr-Zr-C-NO-OCl
   1.000
    3.3351418697451245    0.0000000000000000    0.0000000000000000
   -1.6675709348725622    2.8883175844237421    0.0000000000000000
    0.0000000000000000    0.0000000000000000   27.6789097747974324
   C    Cl   N    O    Zr
    1    1    1    2    2
Direct
    0.0000000000000000    0.0000000000000000    0.5350299961655103     C1
    0.6666669847440474    0.3333329859851446    0.3251573155599792    Cl1
    0.3333329854322145    0.6666669831836742    0.6276403300020683     N1
    0.3333329854322145    0.6666669831836742    0.6748426844400208     O1
    0.6666669847440474    0.3333329859851446    0.4512440776010841     O2
    0.3333329854322145    0.6666669831836742    0.4829030675647715    Zr1
    0.6666669847440474    0.3333329859851446    0.5826555750741287    Zr2
