Y-Y-C-CN-PO
   1.000
    3.6606110470888638    0.0000000000000000    0.0000000000000000
   -1.8303055235444319    3.1701821602018772    0.0000000000000000
    0.0000000000000000    0.0000000000000000   26.9921717108756525
   C    N    O    P    Y 
    2    1    1    1    2
Direct
    0.0000000000000000    0.0000000000000000    0.5164841167682479     C1
    0.3333329854322145    0.6666669831836742    0.6221205433107666     C2
    0.3333329854322145    0.6666669831836742    0.6665699930927109     N1
    0.6666669847440474    0.3333329859851446    0.3334300069072890     O1
    0.6666669847440474    0.3333329859851446    0.3889056322980444     P1
    0.3333329854322145    0.6666669831836742    0.4671796266593109     Y1
    0.6666669847440474    0.3333329859851446    0.5673135699428802     Y2
