Zr-Zr-N-Cl-H
   1.000
    3.3804224645325749    0.0000000000000000    0.0000000000000000
   -1.6902112322662874    2.9275317298030590    0.0000000000000000
    0.0000000000000000    0.0000000000000000   23.1433696685292638
   Cl   H    N    Zr
    1    1    1    2
Direct
    0.3333329854322146    0.6666669831836742    0.6111197233202239    Cl1
    0.6666669847440475    0.3333329859851446    0.3888802766797761     H1
    0.0000000000000000    0.0000000000000000    0.4826369200235890     N1
    0.3333329854322146    0.6666669831836742    0.4323013221243113    Zr1
    0.6666669847440475    0.3333329859851446    0.5326133931071182    Zr2
