Sc-Sc-C-OCl-SCN
   1.000
    3.4972309775319594    0.0000000000000000    0.0000000000000000
   -1.7486154887659797    3.0286908694408252    0.0000000000000000
    0.0000000000000000    0.0000000000000000   27.7490285230364755
   C    Cl   N    O    S    Sc
    2    1    1    1    1    2
Direct
    0.0000000000000000    0.0000000000000000    0.5293383540397961     C1
    0.6666669847440473    0.3333329859851446    0.3672345256200108     C2
    0.3333329854322145    0.6666669831836742    0.6756643212742223    Cl1
    0.6666669847440473    0.3333329859851446    0.3243356787257777     N1
    0.3333329854322145    0.6666669831836742    0.6121006167432360     O1
    0.6666669847440473    0.3333329859851446    0.4274737442091799     S1
    0.3333329854322145    0.6666669831836742    0.4866179507133215    Sc1
    0.6666669847440473    0.3333329859851446    0.5752338714398519    Sc2
