Hf-Hf-N-Br-H
   1.000
    3.3568398029340241    0.0000000000000000    0.0000000000000000
   -1.6784199014670120    2.9071085457694426    0.0000000000000000
    0.0000000000000000    0.0000000000000000   23.2027520396787672
   Br   H    Hf   N 
    1    1    2    1
Direct
    0.3333329854322145    0.6666669831836742    0.6121149773695292    Br1
    0.6666669847440474    0.3333329859851446    0.3878850226304708     H1
    0.3333329854322145    0.6666669831836742    0.4297080242894140    Hf1
    0.6666669847440474    0.3333329859851446    0.5271487691062675    Hf2
    0.0000000000000000    0.0000000000000000    0.4787594368238796     N1
