Ti-Ti-N-OCN-OCN
   1.000
    3.1765217096712082    0.0000000000000000    0.0000000000000000
   -1.5882608548356041    2.7509484962513029    0.0000000000000000
    0.0000000000000000    0.0000000000000000   27.6731063428833437
   C    N    O    Ti
    2    3    2    2
Direct
    0.3333329854322146    0.6666669831836743    0.6318577353085179     C1
    0.6666669847440473    0.3333329859851447    0.3681422641921527     C2
    0.0000000000000000    0.0000000000000000    0.5000000334550615     N1
    0.3333329854322146    0.6666669831836743    0.6747744944681818     N2
    0.6666669847440473    0.3333329859851447    0.3252255055318182     N3
    0.3333329854322146    0.6666669831836743    0.5835522361884027     O1
    0.6666669847440473    0.3333329859851447    0.4164477638115974     O2
    0.3333329854322146    0.6666669831836743    0.4625930239624166    Ti1
    0.6666669847440473    0.3333329859851447    0.5374069755382452    Ti2
