Ti-Ti-C-OCl-NCS
   1.000
    3.1222069323085857    0.0000000000000000    0.0000000000000000
   -1.5611034661542929    2.7039105192510391    0.0000000000000000
    0.0000000000000000    0.0000000000000000   29.9344321353189429
   C    Cl   N    O    S    Ti
    2    1    1    1    1    2
Direct
    0.0000000000000000    0.0000000000000000    0.4754908393970814     C1
    0.6666669847440473    0.3333329859851446    0.3523417615771503     C2
    0.3333329854322145    0.6666669831836742    0.6993428851659722    Cl1
    0.6666669847440473    0.3333329859851446    0.3944617318074211     N1
    0.3333329854322145    0.6666669831836742    0.5489305288384121     O1
    0.6666669847440473    0.3333329859851446    0.3006571148340278     S1
    0.3333329854322145    0.6666669831836742    0.4366360345414041    Ti1
    0.6666669847440473    0.3333329859851446    0.5199150557794561    Ti2
