Sc-Sc-C-NCS-SCN
   1.000
    3.5042212540388578    0.0000000000000000    0.0000000000000000
   -1.7521106270194289    3.0347446264793145    0.0000000000000000
    0.0000000000000000    0.0000000000000000   29.0129497426554614
   C    N    S    Sc
    3    2    2    2
Direct
    0.0000000000000000    0.0000000000000000    0.5068065340296961     C1
    0.3333329854322145    0.6666669831836742    0.6361371698483790     C2
    0.6666669847440474    0.3333329859851447    0.3512316851216555     C3
    0.3333329854322145    0.6666669831836742    0.5930919733262808     N1
    0.6666669847440474    0.3333329859851447    0.3102063071776534     N2
    0.3333329854322145    0.6666669831836742    0.6897936928223466     S1
    0.6666669847440474    0.3333329859851447    0.4088602111614889     S2
    0.3333329854322145    0.6666669831836742    0.4652579170131318    Sc1
    0.6666669847440474    0.3333329859851447    0.5495288660147666    Sc2
