Hf-Hf-N-F-OCN
   1.000
    3.3422274719521194    0.0000000000000000    0.0000000000000000
   -1.6711137359760597    2.8944538959334909    0.0000000000000000
    0.0000000000000000    0.0000000000000000   25.3885263665227505
   C    F    Hf   N    O 
    1    1    2    2    1
Direct
    0.6666669847440475    0.3333329859851446    0.4012553182766558     C1
    0.3333329854322145    0.6666669831836742    0.6455091614979520     F1
    0.3333329854322145    0.6666669831836742    0.5071639783262674    Hf1
    0.6666669847440475    0.3333329859851446    0.5949070473302904    Hf2
    0.0000000000000000    0.0000000000000000    0.5519607310217749     N1
    0.6666669847440475    0.3333329859851446    0.3544908385020479     N2
    0.6666669847440475    0.3333329859851446    0.4540334794063189     O1
