Zr-Zr-N-NO-F
   1.000
    3.3649561724409063    0.0000000000000000    0.0000000000000000
   -1.6824780862204531    2.9141375279532982    0.0000000000000000
    0.0000000000000000    0.0000000000000000   24.2852292012013216
   F    N    O    Zr
    1    2    1    2
Direct
    0.6666669847440473    0.3333329859851446    0.3705956375966506     F1
    0.0000000000000000    0.0000000000000000    0.4708595553799453     N1
    0.3333329854322145    0.6666669831836742    0.5752677526023977     N2
    0.3333329854322145    0.6666669831836742    0.6294043624033494     O1
    0.3333329854322145    0.6666669831836742    0.4253146051563200    Zr1
    0.6666669847440473    0.3333329859851446    0.5248719330016854    Zr2
