Ti-Ti-C-O-H
   1.000
    3.0670588993498948    0.0000000000000000    0.0000000000000000
   -1.5335294496749474    2.6561509217389045    0.0000000000000000
    0.0000000000000000    0.0000000000000000   22.3639911383948800
   C    H    O    Ti
    1    1    1    2
Direct
    0.0000000000000000    0.0000000000000000    0.4969346139908760     C1
    0.6666669847440473    0.3333329859851446    0.4024326402342669     H1
    0.3333329854322145    0.6666669831836742    0.5975673597657331     O1
    0.3333329854322145    0.6666669831836742    0.4462942145745626    Ti1
    0.6666669847440473    0.3333329859851446    0.5569667419507591    Ti2
