Hf-Hf-C-CN-O
   1.000
    3.2877043379248554    0.0000000000000000    0.0000000000000000
   -1.6438521689624277    2.8472354767735801    0.0000000000000000
    0.0000000000000000    0.0000000000000000   24.2566686419013458
   C    Hf   N    O 
    2    2    1    1
Direct
    0.0000000000000000    0.0000000000000000    0.4670576507120734     C1
    0.3333329854322143    0.6666669831836741    0.5790884914050830     C2
    0.3333329854322143    0.6666669831836741    0.4097035966359377    Hf1
    0.6666669847440474    0.3333329859851446    0.5190420521773877    Hf2
    0.3333329854322143    0.6666669831836741    0.6289680115243336     N1
    0.6666669847440474    0.3333329859851446    0.3710319884756664     O1
