Sc-Sc-C-NCO-F
   1.000
    3.3654985620328444    0.0000000000000000    0.0000000000000000
   -1.6827492810164222    2.9146072511197438    0.0000000000000000
    0.0000000000000000    0.0000000000000000   25.3897327197288192
   C    F    N    O    Sc
    2    1    1    1    2
Direct
    0.0000000000000000    0.0000000000000000    0.4474335343126183     C1
    0.3333329854322146    0.6666669831836743    0.5980729624561465     C2
    0.6666669847440473    0.3333329859851446    0.3544739954275551     F1
    0.3333329854322146    0.6666669831836743    0.5490294988087363     N1
    0.3333329854322146    0.6666669831836743    0.6455260045724449     O1
    0.3333329854322146    0.6666669831836743    0.3978482769756342    Sc1
    0.6666669847440473    0.3333329859851446    0.4964545861933476    Sc2
