Ti-Ti-N-OCl-OH
   1.000
    3.0596166804677267    0.0000000000000000    0.0000000000000000
   -1.5298083402338634    2.6497057711276564    0.0000000000000000
    0.0000000000000000    0.0000000000000000   28.2792324982133181
   Cl   H    N    O    Ti
    1    1    1    2    2
Direct
    0.3333329854322146    0.6666669831836743    0.6817452524367973    Cl1
    0.6666669847440474    0.3333329859851446    0.3182547475632028     H1
    0.0000000000000000    0.0000000000000000    0.4378337607437253     N1
    0.3333329854322146    0.6666669831836743    0.5150237364406478     O1
    0.6666669847440474    0.3333329859851446    0.3532256449671265     O2
    0.3333329854322146    0.6666669831836743    0.3975795097596288    Ti1
    0.6666669847440474    0.3333329859851446    0.4829096359962745    Ti2
