Hf-Hf-C-CN-OCN
   1.000
    3.3369336319386185    0.0000000000000000    0.0000000000000000
   -1.6684668159693092    2.8898692960008145    0.0000000000000000
    0.0000000000000000    0.0000000000000000   26.9778877460643400
   C    Hf   N    O 
    3    2    2    1
Direct
    0.0000000000000000    0.0000000000000000    0.5211346624554887     C1
    0.3333329854322145    0.6666669831836742    0.6216589263707533     C2
    0.6666669847440474    0.3333329859851446    0.3776276838870957     C3
    0.3333329854322145    0.6666669831836742    0.4780980952450045    Hf1
    0.6666669847440474    0.3333329859851446    0.5675105911517833    Hf2
    0.3333329854322145    0.6666669831836742    0.6663934521221750     N1
    0.6666669847440474    0.3333329859851446    0.3336065478778250     N2
    0.6666669847440474    0.3333329859851446    0.4272970361392995     O1
