Sc-Sc-N-OCl-O
   1.000
    3.3048369020920796    0.0000000000000000    0.0000000000000000
   -1.6524184510460398    2.8620727125635552    0.0000000000000000
    0.0000000000000000    0.0000000000000000   24.2534513328756418
   Cl   N    O    Sc
    1    1    2    2
Direct
    0.3333329854322145    0.6666669831836742    0.6289187927740219    Cl1
    0.0000000000000000    0.0000000000000000    0.4654474704267567     N1
    0.3333329854322145    0.6666669831836742    0.5582064111615416     O1
    0.6666669847440474    0.3333329859851446    0.3710812072259780     O2
    0.3333329854322145    0.6666669831836742    0.3998096219636831    Sc1
    0.6666669847440474    0.3333329859851446    0.5081545063643356    Sc2
