Y-Y-N-CN-F
   1.000
    3.5475851656041693    0.0000000000000000    0.0000000000000000
   -1.7737925828020846    3.0722988755027569    0.0000000000000000
    0.0000000000000000    0.0000000000000000   24.5863794412286438
   C    F    N    Y 
    1    1    2    2
Direct
    0.3333329854322145    0.6666669831836742    0.5850942910738379     C1
    0.6666669847440474    0.3333329859851447    0.3660563370671809     F1
    0.0000000000000000    0.0000000000000000    0.4664703726704741     N1
    0.3333329854322145    0.6666669831836742    0.6339436629328191     N2
    0.3333329854322145    0.6666669831836742    0.4153789983442987     Y1
    0.6666669847440474    0.3333329859851447    0.5240608304056764     Y2
