Ti-Ti-C-PO-Br
   1.000
    3.2305651436079712    0.0000000000000000    0.0000000000000000
   -1.6152825718039856    2.7977514829421484    0.0000000000000000
    0.0000000000000000    0.0000000000000000   25.4008867723582625
   Br   C    O    P    Ti
    1    1    1    1    2
Direct
    0.6666669847440474    0.3333329859851446    0.3543183385941460    Br1
    0.0000000000000000    0.0000000000000000    0.4699278875702251     C1
    0.3333329854322145    0.6666669831836742    0.6456816614058540     O1
    0.3333329854322145    0.6666669831836742    0.5869691338504415     P1
    0.3333329854322145    0.6666669831836742    0.4268460230383140    Ti1
    0.6666669847440474    0.3333329859851446    0.5139415557318222    Ti2
