Hf-Hf-N-NO-NCS
   1.000
    3.3373603392302704    0.0000000000000000    0.0000000000000000
   -1.6686801696151352    2.8902388353510382    0.0000000000000000
    0.0000000000000000    0.0000000000000000   27.4594913412434778
   C    Hf   N    O    S 
    1    2    3    1    1
Direct
    0.6666669847440473    0.3333329859851446    0.3842868770087126     C1
    0.3333329854322145    0.6666669831836741    0.4843042497133348    Hf1
    0.6666669847440473    0.3333329859851446    0.6305959348417196    Hf2
    0.0000000000000000    0.0000000000000000    0.5078326726647793     N1
    0.3333329854322145    0.6666669831836741    0.5943539676946683     N2
    0.6666669847440473    0.3333329859851446    0.4296758739009283     N3
    0.3333329854322145    0.6666669831836741    0.6722444750284859     O1
    0.6666669847440473    0.3333329859851446    0.3277555249715140     S1
