Y-Y-C-OCl-O
   1.000
    3.6102618888695353    0.0000000000000000    0.0000000000000000
   -1.8051309444347676    3.1265785100847969    0.0000000000000000
    0.0000000000000000    0.0000000000000000   24.7729044710521471
   C    Cl   O    Y 
    1    1    2    2
Direct
    0.0000000000000000    0.0000000000000000    0.4651816803477835     C1
    0.3333329854322145    0.6666669831836742    0.6366998463778537    Cl1
    0.3333329854322145    0.6666669831836742    0.5657134610765248     O1
    0.6666669847440475    0.3333329859851446    0.3633001536221463     O2
    0.3333329854322145    0.6666669831836742    0.3913902889553577     Y1
    0.6666669847440475    0.3333329859851446    0.5177447591237577     Y2
