Zr-Zr-N-NCS-NCS
   1.000
    3.4223639421185865    0.0000000000000000    0.0000000000000000
   -1.7111819710592933    2.9638541148378099    0.0000000000000000
    0.0000000000000000    0.0000000000000000   28.7018988321587507
   C    N    S    Zr
    2    3    2    2
Direct
    0.3333329854322145    0.6666669831836742    0.6322893750087419     C1
    0.6666669847440474    0.3333329859851446    0.3677106249912580     C2
    0.0000000000000000    0.0000000000000000    0.5000000279955729     N1
    0.3333329854322145    0.6666669831836742    0.5886246865824494     N2
    0.6666669847440474    0.3333329859851446    0.4113753138323001     N3
    0.3333329854322145    0.6666669831836742    0.6864318959303124     S1
    0.6666669847440474    0.3333329859851446    0.3135681040696876     S2
    0.3333329854322145    0.6666669831836742    0.4597105730092792    Zr1
    0.6666669847440474    0.3333329859851446    0.5402894269907133    Zr2
