Hf-Hf-C-NCS-H
   1.000
    3.3206947505324833    0.0000000000000000    0.0000000000000000
   -1.6603473752662417    2.8758060121701123    0.0000000000000000
    0.0000000000000000    0.0000000000000000   25.6014131279862269
   C    H    Hf   N    S 
    2    1    2    1    1
Direct
    0.0000000000000000    0.0000000000000000    0.4380871715982093     C1
    0.3333329854322145    0.6666669831836742    0.5878955233825380     C2
    0.6666669847440473    0.3333329859851447    0.3515430947115038     H1
    0.3333329854322145    0.6666669831836742    0.3900663694392850    Hf1
    0.6666669847440473    0.3333329859851447    0.4854938459422858    Hf2
    0.3333329854322145    0.6666669831836742    0.5387418448710040     N1
    0.3333329854322145    0.6666669831836742    0.6484569052884961     S1
