Zr-Zr-N-OCl-NCS
   1.000
    3.3122717533755961    0.0000000000000000    0.0000000000000000
   -1.6561358766877980    2.8685114826756468    0.0000000000000000
    0.0000000000000000    0.0000000000000000   29.1882903143905104
   C    Cl   N    O    S    Zr
    1    1    2    1    1    2
Direct
    0.6666669847440474    0.3333329859851446    0.3614409582029297     C1
    0.3333329854322146    0.6666669831836742    0.6916571713156221    Cl1
    0.0000000000000000    0.0000000000000000    0.4967048335938230     N1
    0.6666669847440474    0.3333329859851446    0.4046441672432975     N2
    0.3333329854322146    0.6666669831836742    0.5733300002936453     O1
    0.6666669847440474    0.3333329859851446    0.3083428286843779     S1
    0.3333329854322146    0.6666669831836742    0.4513832631662866    Zr1
    0.6666669847440474    0.3333329859851446    0.5422556866082793    Zr2
