Sc-Sc-N-NO-H
   1.000
    3.2728551173708511    0.0000000000000000    0.0000000000000000
   -1.6364275586854256    2.8343756745402571    0.0000000000000000
    0.0000000000000000    0.0000000000000000   23.9609511473930432
   H    N    O    Sc
    1    2    1    2
Direct
    0.6666669847440474    0.3333329859851446    0.3756111326565265     H1
    0.0000000000000000    0.0000000000000000    0.4644725854732591     N1
    0.3333329854322145    0.6666669831836742    0.5694777319727853     N2
    0.3333329854322145    0.6666669831836742    0.6243888673434734     O1
    0.3333329854322145    0.6666669831836742    0.4189605160499859    Sc1
    0.6666669847440474    0.3333329859851446    0.5258788555734100    Sc2
