Ti-Ti-C-Br-Br
   1.000
    3.3311584579065978    0.0000000000000000    0.0000000000000000
   -1.6655792289532989    2.8848678485570658    0.0000000000000000
    0.0000000000000000    0.0000000000000000   23.7798420808950048
   Br   C    Ti
    2    1    2
Direct
    0.3333329854322146    0.6666669831836742    0.6215281846959486    Br1
    0.6666669847440474    0.3333329859851446    0.3784718153040513    Br2
    0.0000000000000000    0.0000000000000000    0.5000000354016781     C1
    0.3333329854322146    0.6666669831836742    0.4553280210191668    Ti1
    0.6666669847440474    0.3333329859851446    0.5446719784524403    Ti2
