Hf-Hf-C-H-OCN
   1.000
    3.2978982229312250    0.0000000000000000    0.0000000000000000
   -1.6489491114656125    2.8560636401594448    0.0000000000000000
    0.0000000000000000    0.0000000000000000   25.3246692499411239
   C    H    Hf   N    O 
    2    1    2    1    1
Direct
    0.0000000000000000    0.0000000000000000    0.5558425799753584     C1
    0.6666669847440474    0.3333329859851445    0.4022615505619513     C2
    0.3333329854322145    0.6666669831836742    0.6446152993677925     H1
    0.3333329854322145    0.6666669831836742    0.5098543236250593    Hf1
    0.6666669847440474    0.3333329859851445    0.6055597341620171    Hf2
    0.6666669847440474    0.3333329859851445    0.3553847006322076     N1
    0.6666669847440474    0.3333329859851445    0.4551301054670268     O1
