Sc-Sc-C-NCS-OH
   1.000
    3.3799697388005145    0.0000000000000000    0.0000000000000000
   -1.6899848694002573    2.9271396577910433    0.0000000000000000
    0.0000000000000000    0.0000000000000000   26.8193618026726739
   C    H    N    O    S    Sc
    2    1    1    1    1    2
Direct
    0.0000000000000000    0.0000000000000000    0.4644793439617566     C1
    0.3333329854322145    0.6666669831836742    0.6064084906003436     C2
    0.6666669847440473    0.3333329859851446    0.3355784550810269     H1
    0.3333329854322145    0.6666669831836742    0.5599715750500195     N1
    0.6666669847440473    0.3333329859851446    0.3722731973303217     O1
    0.3333329854322145    0.6666669831836742    0.6644215449189731     S1
    0.3333329854322145    0.6666669831836742    0.4175176829530955    Sc1
    0.6666669847440473    0.3333329859851446    0.5109087879977999    Sc2
