Ti-Ti-N-OCl-F
   1.000
    3.1519208985650287    0.0000000000000000    0.0000000000000000
   -1.5759604492825143    2.7296435688878007    0.0000000000000000
    0.0000000000000000    0.0000000000000000   27.4388808375766509
   Cl   F    N    O    Ti
    1    1    1    1    2
Direct
    0.3333329854322145    0.6666669831836742    0.6719982839943386    Cl1
    0.6666669847440474    0.3333329859851446    0.3280017160056614     F1
    0.0000000000000000    0.0000000000000000    0.4117150501571155     N1
    0.3333329854322145    0.6666669831836742    0.4898810543912611     O1
    0.3333329854322145    0.6666669831836742    0.3723734475890351    Ti1
    0.6666669847440474    0.3333329859851446    0.4584008285750047    Ti2
