Y-Y-C-NO-OH
   1.000
    3.6369615478549608    0.0000000000000000    0.0000000000000000
   -1.8184807739274804    3.1497010930427689    0.0000000000000000
    0.0000000000000000    0.0000000000000000   25.6230743905227314
   C    H    N    O    Y 
    1    1    1    2    2
Direct
    0.0000000000000000    0.0000000000000000    0.4931143790725511     C1
    0.6666669847440474    0.3333329859851446    0.3512459068272016     H1
    0.3333329854322145    0.6666669831836742    0.5982494422452466     N1
    0.3333329854322145    0.6666669831836742    0.6487540931727984     O1
    0.6666669847440474    0.3333329859851446    0.3897201078008219     O2
    0.3333329854322145    0.6666669831836742    0.4396731297664790     Y1
    0.6666669847440474    0.3333329859851446    0.5474000386780742     Y2
