Hf-Hf-N-SCN-H
   1.000
    3.3367349965635738    0.0000000000000000    0.0000000000000000
   -1.6683674982817869    2.8896972727222430    0.0000000000000000
    0.0000000000000000    0.0000000000000000   25.9194903425565393
   C    H    Hf   N    S 
    1    1    2    2    1
Direct
    0.3333329854322145    0.6666669831836742    0.6068439382237221     C1
    0.6666669847440475    0.3333329859851446    0.3472290496863332     H1
    0.3333329854322145    0.6666669831836742    0.3849438089970688    Hf1
    0.6666669847440475    0.3333329859851446    0.4771799745617418    Hf2
    0.0000000000000000    0.0000000000000000    0.4278067771630417     N1
    0.3333329854322145    0.6666669831836742    0.6527709503136667     N2
    0.3333329854322145    0.6666669831836742    0.5413966476118013     S1
