Hf-Hf-C-OCl-F
   1.000
    3.3028503673698903    0.0000000000000000    0.0000000000000000
   -1.6514251836849447    2.8603523230380787    0.0000000000000000
    0.0000000000000000    0.0000000000000000   26.1770952749841257
   C    Cl   F    Hf   O 
    1    1    1    2    1
Direct
    0.0000000000000000    0.0000000000000000    0.4381690169673234     C1
    0.3333329854322145    0.6666669831836742    0.6561879801613910    Cl1
    0.6666669847440474    0.3333329859851446    0.3438120198386090     F1
    0.3333329854322145    0.6666669831836742    0.3930600186821129    Hf1
    0.6666669847440474    0.3333329859851446    0.4928658397101209    Hf2
    0.3333329854322145    0.6666669831836742    0.5263558544580599     O1
