Y-Y-C-SCN-Cl
   1.000
    3.7799764645982448    0.0000000000000000    0.0000000000000000
   -1.8899882322991224    3.2735556441289315    0.0000000000000000
    0.0000000000000000    0.0000000000000000   26.9869530445965431
   C    Cl   N    S    Y 
    2    1    1    1    2
Direct
    0.0000000000000000    0.0000000000000000    0.4467584236651549     C1
    0.3333329854322145    0.6666669831836742    0.6224031198562063     C2
    0.6666669847440474    0.3333329859851446    0.3334944847285019    Cl1
    0.3333329854322145    0.6666669831836742    0.6665055152714980     N1
    0.3333329854322145    0.6666669831836742    0.5603507709520010     S1
    0.3333329854322145    0.6666669831836742    0.3969986867512068     Y1
    0.6666669847440474    0.3333329859851446    0.4960767139398969     Y2
