Sc-Sc-N-NCS-F
   1.000
    3.3363860105742527    0.0000000000000000    0.0000000000000000
   -1.6681930052871263    2.8893950419734589    0.0000000000000000
    0.0000000000000000    0.0000000000000000   25.6221191931141625
   C    F    N    S    Sc
    1    1    2    1    2
Direct
    0.3333329854322146    0.6666669831836742    0.5881707710714600     C1
    0.6666669847440474    0.3333329859851446    0.3512590013404789     F1
    0.0000000000000000    0.0000000000000000    0.4406247392568235     N1
    0.3333329854322146    0.6666669831836742    0.5391946598532569     N2
    0.3333329854322146    0.6666669831836742    0.6487409986595212     S1
    0.3333329854322146    0.6666669831836742    0.3956955494991300    Sc1
    0.6666669847440474    0.3333329859851446    0.4905086403827443    Sc2
