Sc-Sc-C-SCN-O
   1.000
    3.4005617658694192    0.0000000000000000    0.0000000000000000
   -1.7002808829347096    2.9449728763834182    0.0000000000000000
    0.0000000000000000    0.0000000000000000   26.0078487535524587
   C    N    O    S    Sc
    2    1    1    1    2
Direct
    0.0000000000000000    0.0000000000000000    0.4359644252939537     C1
    0.3333329854322146    0.6666669831836743    0.6080919117984940     C2
    0.3333329854322146    0.6666669831836743    0.6539506175507624     N1
    0.6666669847440474    0.3333329859851447    0.3460493824492376     O1
    0.3333329854322146    0.6666669831836743    0.5439865059604582     S1
    0.3333329854322146    0.6666669831836743    0.3707368836899915    Sc1
    0.6666669847440474    0.3333329859851447    0.4781234856947190    Sc2
