Hf-Hf-N-H-OCN
   1.000
    3.2837913523722744    0.0000000000000000    0.0000000000000000
   -1.6418956761861372    2.8438467318722558    0.0000000000000000
    0.0000000000000000    0.0000000000000000   25.2090562469395181
   C    H    Hf   N    O 
    1    1    2    2    1
Direct
    0.6666669847440474    0.3333329859851446    0.4041018023829892     C1
    0.3333329854322145    0.6666669831836742    0.6429854449195163     H1
    0.3333329854322145    0.6666669831836742    0.5122430736440415    Hf1
    0.6666669847440474    0.3333329859851446    0.6035363352616347    Hf2
    0.0000000000000000    0.0000000000000000    0.5565432980410573     N1
    0.6666669847440474    0.3333329859851446    0.3570145550804837     N2
    0.6666669847440474    0.3333329859851446    0.4572766124724038     O1
