Y-Y-N-NCS-PO
   1.000
    3.5544230510976194    0.0000000000000000    0.0000000000000000
   -1.7772115255488097    3.0782206580306344    0.0000000000000000
    0.0000000000000000    0.0000000000000000   28.4102566897708257
   C    N    O    P    S    Y 
    1    2    1    1    1    2
Direct
    0.3333329854322146    0.6666669831836743    0.6284330424395222     C1
    0.0000000000000000    0.0000000000000000    0.4896109350987043     N1
    0.3333329854322146    0.6666669831836743    0.5844637948079653     N2
    0.6666669847440474    0.3333329859851447    0.3167870004933983     O1
    0.6666669847440474    0.3333329859851447    0.3694824572672158     P1
    0.3333329854322146    0.6666669831836743    0.6832129995066017     S1
    0.3333329854322146    0.6666669831836743    0.4425368695917403     Y1
    0.6666669847440474    0.3333329859851447    0.5354827116963518     Y2
