Zr-Zr-N-PO-OH
   1.000
    3.3042708133834338    0.0000000000000000    0.0000000000000000
   -1.6521354066917169    2.8615824653610984    0.0000000000000000
    0.0000000000000000    0.0000000000000000   26.2800626279636802
   H    N    O    P    Zr
    1    1    2    1    2
Direct
    0.6666669847440475    0.3333329859851446    0.3424649372952185     H1
    0.0000000000000000    0.0000000000000000    0.4758448347090564     N1
    0.3333329854322146    0.6666669831836742    0.6575350627047813     O1
    0.6666669847440475    0.3333329859851446    0.3801300149344323     O2
    0.3333329854322146    0.6666669831836742    0.6006978291459699     P1
    0.3333329854322146    0.6666669831836742    0.4315635678317838    Zr1
    0.6666669847440475    0.3333329859851446    0.5253092494851093    Zr2
