Y-Y-N-PO-OH
   1.000
    3.5069142378573348    0.0000000000000000    0.0000000000000000
   -1.7534571189286674    3.0370768188775452    0.0000000000000000
    0.0000000000000000    0.0000000000000000   26.5487708856132407
   H    N    O    P    Y 
    1    1    2    1    2
Direct
    0.6666669847440474    0.3333329859851446    0.3389987445662538     H1
    0.0000000000000000    0.0000000000000000    0.4742710053113018     N1
    0.3333329854322145    0.6666669831836741    0.6610012554337461     O1
    0.6666669847440474    0.3333329859851446    0.3761019857273851     O2
    0.3333329854322145    0.6666669831836741    0.6046216290138340     P1
    0.3333329854322145    0.6666669831836741    0.4257664420818514     Y1
    0.6666669847440474    0.3333329859851446    0.5260301327533401     Y2
