Sc-Sc-C-CN-O
   1.000
    3.3320201472338935    0.0000000000000000    0.0000000000000000
   -1.6660100736169468    2.8856140934210361    0.0000000000000000
    0.0000000000000000    0.0000000000000000   24.2190357010592265
   C    N    O    Sc
    2    1    1    2
Direct
    0.0000000000000000    0.0000000000000000    0.4697802082973554     C1
    0.3333329854322145    0.6666669831836742    0.5789021676144945     C2
    0.3333329854322145    0.6666669831836742    0.6283914805242894     N1
    0.6666669847440473    0.3333329859851446    0.3716085194757106     O1
    0.3333329854322145    0.6666669831836742    0.3998586420159671    Sc1
    0.6666669847440473    0.3333329859851446    0.5185923311222674    Sc2
