Hf-Hf-N-NCO-F
   1.000
    3.3326612513825116    0.0000000000000000    0.0000000000000000
   -1.6663306256912558    2.8861693059028104    0.0000000000000000
    0.0000000000000000    0.0000000000000000   25.4068980520037044
   C    F    Hf   N    O 
    1    1    2    2    1
Direct
    0.3333329854322145    0.6666669831836742    0.5983242795919136     C1
    0.6666669847440474    0.3333329859851447    0.3542345067697164     F1
    0.3333329854322145    0.6666669831836742    0.4052771176940071    Hf1
    0.6666669847440474    0.3333329859851447    0.4939051518862690    Hf2
    0.0000000000000000    0.0000000000000000    0.4477443535238319     N1
    0.3333329854322145    0.6666669831836742    0.5490796900873121     N2
    0.3333329854322145    0.6666669831836742    0.6457654932302836     O1
