Y-Y-C-OCN-OCN
   1.000
    3.6583577827246176    0.0000000000000000    0.0000000000000000
   -1.8291788913623088    3.1682307759675936    0.0000000000000000
    0.0000000000000000    0.0000000000000000   28.2926876796229791
   C    N    O    Y 
    3    2    2    2
Direct
    0.0000000000000000    0.0000000000000000    0.5000000246704368     C1
    0.3333329854322145    0.6666669831836742    0.6398512296404666     C2
    0.6666669847440473    0.3333329859851446    0.3601487699913183     C3
    0.3333329854322145    0.6666669831836742    0.6818966051612694     N1
    0.6666669847440473    0.3333329859851446    0.3181033948387307     N2
    0.3333329854322145    0.6666669831836742    0.5926550027598874     O1
    0.6666669847440473    0.3333329859851446    0.4073449972401120     O2
    0.3333329854322145    0.6666669831836742    0.4517749030926755     Y1
    0.6666669847440473    0.3333329859851446    0.5482250965391025     Y2
