Sc-Sc-N-NO-NCO
   1.000
    3.3087030770123125    0.0000000000000000    0.0000000000000000
   -1.6543515385061562    2.8654209182633381    0.0000000000000000
    0.0000000000000000    0.0000000000000000   26.7095640682871043
   C    N    O    Sc
    1    3    2    2
Direct
    0.6666669847440475    0.3333329859851446    0.3820215105451030     C1
    0.0000000000000000    0.0000000000000000    0.5199846411280905     N1
    0.3333329854322145    0.6666669831836742    0.6136304581136951     N2
    0.6666669847440475    0.3333329859851446    0.4286303475476341     N3
    0.3333329854322145    0.6666669831836742    0.6630420482719179     O1
    0.6666669847440475    0.3333329859851446    0.3369579517280821     O2
    0.3333329854322145    0.6666669831836742    0.4797621032476700    Sc1
    0.6666669847440475    0.3333329859851446    0.5759232526435580    Sc2
