Zr-Zr-N-H-OCN
   1.000
    3.3489509637675332    0.0000000000000000    0.0000000000000000
   -1.6744754818837666    2.9002766106455464    0.0000000000000000
    0.0000000000000000    0.0000000000000000   25.2670115375220981
   C    H    N    O    Zr
    1    1    2    1    2
Direct
    0.6666669847440474    0.3333329859851446    0.4032060354137698     C1
    0.3333329854322146    0.6666669831836742    0.6438043340964643     H1
    0.0000000000000000    0.0000000000000000    0.5566841121780621     N1
    0.6666669847440474    0.3333329859851446    0.3561956659035356     N2
    0.6666669847440474    0.3333329859851446    0.4560811581533056     O1
    0.3333329854322146    0.6666669831836742    0.5113894767003498    Zr1
    0.6666669847440474    0.3333329859851446    0.6038753746147218    Zr2
