Sc-Sc-N-O-OH
   1.000
    3.2635154461688907    0.0000000000000000    0.0000000000000000
   -1.6317577230844453    2.8262872820173950    0.0000000000000000
    0.0000000000000000    0.0000000000000000   23.6194450296011169
   H    N    O    Sc
    1    1    2    2
Direct
    0.6666669847440474    0.3333329859851447    0.3810419757416287     H1
    0.0000000000000000    0.0000000000000000    0.5207509842480589     N1
    0.3333329854322145    0.6666669831836742    0.6189580242583713     O1
    0.6666669847440474    0.3333329859851447    0.4225867201394492     O2
    0.3333329854322145    0.6666669831836742    0.4766326856336506    Sc1
    0.6666669847440474    0.3333329859851447    0.5882545025447061    Sc2
