Zr-Zr-C-Cl-H
   1.000
    3.3834111485450609    0.0000000000000000    0.0000000000000000
   -1.6917055742725304    2.9301200060831136    0.0000000000000000
    0.0000000000000000    0.0000000000000000   23.2798936204622393
   C    Cl   H    Zr
    1    1    1    2
Direct
    0.0000000000000000    0.0000000000000000    0.4833085803833777     C1
    0.3333329854322144    0.6666669831836742    0.6134002952621183    Cl1
    0.6666669847440473    0.3333329859851446    0.3865997047378819     H1
    0.3333329854322144    0.6666669831836742    0.4293386182089268    Zr1
    0.6666669847440473    0.3333329859851446    0.5354465450143604    Zr2
