Hf-Hf-N-CN-OCN
   1.000
    3.3266591130547445    0.0000000000000000    0.0000000000000000
   -1.6633295565273722    2.8809713016287977    0.0000000000000000
    0.0000000000000000    0.0000000000000000   26.8417532093792204
   C    Hf   N    O 
    2    2    3    1
Direct
    0.3333329854322145    0.6666669831836742    0.6196774978488773     C1
    0.6666669847440474    0.3333329859851446    0.3795353345610975     C2
    0.3333329854322145    0.6666669831836742    0.4804323615648096    Hf1
    0.6666669847440474    0.3333329859851446    0.5654904872709683    Hf2
    0.0000000000000000    0.0000000000000000    0.5212577902565037     N1
    0.3333329854322145    0.6666669831836742    0.6647014846684769     N2
    0.6666669847440474    0.3333329859851446    0.3352985153315232     N3
    0.6666669847440474    0.3333329859851446    0.4295188362546169     O1
