Ti-Ti-N-PO-OH
   1.000
    3.1098240384542062    0.0000000000000000    0.0000000000000000
   -1.5549120192271031    2.6931866185992153    0.0000000000000000
    0.0000000000000000    0.0000000000000000   25.7920836370189051
   H    N    O    P    Ti
    1    1    2    1    2
Direct
    0.6666669847440473    0.3333329859851446    0.3489442778900758     H1
    0.0000000000000000    0.0000000000000000    0.4773445125172919     N1
    0.3333329854322146    0.6666669831836742    0.6510557221099242     O1
    0.6666669847440473    0.3333329859851446    0.3872876177848792     O2
    0.3333329854322146    0.6666669831836742    0.5932200907302785     P1
    0.3333329854322146    0.6666669831836742    0.4357121140013246    Ti1
    0.6666669847440473    0.3333329859851446    0.5210430785885223    Ti2
