Y-Y-N-OCl-Br
   1.000
    3.7729966058217861    0.0000000000000000    0.0000000000000000
   -1.8864983029108930    3.2675109090543706    0.0000000000000000
    0.0000000000000000    0.0000000000000000   25.0886008793375268
   Br   Cl   N    O    Y 
    1    1    1    1    2
Direct
    0.6666669847440474    0.3333329859851446    0.3587286530358981    Br1
    0.3333329854322146    0.6666669831836743    0.6412713469641019    Cl1
    0.0000000000000000    0.0000000000000000    0.4650895382408359     N1
    0.3333329854322146    0.6666669831836743    0.5344316561335891     O1
    0.3333329854322146    0.6666669831836743    0.4382233602785875     Y1
    0.6666669847440474    0.3333329859851446    0.5621840347622395     Y2
