Hf-Hf-C-NCS-F
   1.000
    3.3556686167086833    0.0000000000000000    0.0000000000000000
   -1.6778343083543417    2.9060942687502984    0.0000000000000000
    0.0000000000000000    0.0000000000000000   25.8537089956374864
   C    F    Hf   N    S 
    2    1    2    1    1
Direct
    0.0000000000000000    0.0000000000000000    0.4427460772287769     C1
    0.3333329854322145    0.6666669831836742    0.5918913331464715     C2
    0.6666669847440474    0.3333329859851446    0.3481125281296639     F1
    0.3333329854322145    0.6666669831836742    0.3984729282696718    Hf1
    0.6666669847440474    0.3333329859851446    0.4910293730789725    Hf2
    0.3333329854322145    0.6666669831836742    0.5431561985554730     N1
    0.3333329854322145    0.6666669831836742    0.6518874718703360     S1
