Hf-Hf-C-NO-H
   1.000
    3.3255827277618231    0.0000000000000000    0.0000000000000000
   -1.6627913638809115    2.8800391246245751    0.0000000000000000
    0.0000000000000000    0.0000000000000000   23.9395881577374041
   C    H    Hf   N    O 
    1    1    2    1    1
Direct
    0.0000000000000000    0.0000000000000000    0.4664480700551633     C1
    0.6666669847440473    0.3333329859851446    0.3759463170669104     H1
    0.3333329854322145    0.6666669831836742    0.4186712246436848    Hf1
    0.6666669847440473    0.3333329859851446    0.5261651573044529    Hf2
    0.3333329854322145    0.6666669831836742    0.5682172216820056     N1
    0.3333329854322145    0.6666669831836742    0.6240536829330896     O1
