Y-Y-C-SCN-H
   1.000
    3.7213368831239477    0.0000000000000000    0.0000000000000000
   -1.8606684415619739    3.2227722768544091    0.0000000000000000
    0.0000000000000000    0.0000000000000000   26.3062699915721865
   C    H    N    S    Y 
    2    1    1    1    2
Direct
    0.0000000000000000    0.0000000000000000    0.4312230478705705     C1
    0.3333329854322145    0.6666669831836742    0.6126340046000245     C2
    0.6666669847440475    0.3333329859851446    0.3421237599584949     H1
    0.3333329854322145    0.6666669831836742    0.6578762400415052     N1
    0.3333329854322145    0.6666669831836742    0.5490347452187254     S1
    0.3333329854322145    0.6666669831836742    0.3798064322951705     Y1
    0.6666669847440475    0.3333329859851446    0.4820670092099426     Y2
