Sc-Sc-N-O-OCN
   1.000
    3.2901137090929509    0.0000000000000000    0.0000000000000000
   -1.6450568545464754    2.8493220534242529    0.0000000000000000
    0.0000000000000000    0.0000000000000000   25.1269975502757426
   C    N    O    Sc
    1    2    2    2
Direct
    0.6666669847440474    0.3333329859851446    0.4054397480873144     C1
    0.0000000000000000    0.0000000000000000    0.5502848433399704     N1
    0.6666669847440474    0.3333329859851446    0.3581804782681341     N2
    0.3333329854322145    0.6666669831836741    0.6418195217318658     O1
    0.6666669847440474    0.3333329859851446    0.4586256954603026     O2
    0.3333329854322145    0.6666669831836741    0.5097029307240826    Sc1
    0.6666669847440474    0.3333329859851446    0.6141846642035175    Sc2
