Hf-Hf-C-NCO-NCS
   1.000
    3.3507808491990212    0.0000000000000000    0.0000000000000000
   -1.6753904245995106    2.9018613379149834    0.0000000000000000
    0.0000000000000000    0.0000000000000000   28.4575493789946101
   C    Hf   N    O    S 
    3    2    2    1    1
Direct
    0.0000000000000000    0.0000000000000000    0.5057494433055891     C1
    0.3333329854322145    0.6666669831836742    0.6413847744178527     C2
    0.6666669847440474    0.3333329859851446    0.3707582822145679     C3
    0.3333329854322145    0.6666669831836742    0.4626710499617002    Hf1
    0.6666669847440474    0.3333329859851446    0.5473561563189607    Hf2
    0.3333329854322145    0.6666669831836742    0.5974996447782887     N1
    0.6666669847440474    0.3333329859851446    0.4150205815293246     N2
    0.3333329854322145    0.6666669831836742    0.6837394576694235     O1
    0.6666669847440474    0.3333329859851446    0.3162605423305765     S1
