Y-Y-C-SCN-O
   1.000
    3.6815364342130619    0.0000000000000000    0.0000000000000000
   -1.8407682171065309    3.1883040770105926    0.0000000000000000
    0.0000000000000000    0.0000000000000000   26.3124538608229592
   C    N    O    S    Y 
    2    1    1    1    2
Direct
    0.0000000000000000    0.0000000000000000    0.4357782533168005     C1
    0.3333329854322146    0.6666669831836743    0.6126731123659221     C2
    0.3333329854322146    0.6666669831836743    0.6579566448798511     N1
    0.6666669847440474    0.3333329859851446    0.3420433551201489     O1
    0.3333329854322146    0.6666669831836743    0.5491806284329311     S1
    0.3333329854322146    0.6666669831836743    0.3659016658743491     Y1
    0.6666669847440474    0.3333329859851446    0.4806279685201943     Y2
