 Sc-Sc-C-F-Br                           
   1.0000000000000000     
     3.3879193564292929   -0.0000000000000000   -0.0000000000000000
    -1.6939596782146462    2.9340242286373091   -0.0000000000000000
     0.0000000000000017    0.0000000000000025   30.3684411814973707
   C    Br   F    Sc
     1     1     1     2
Direct
 -0.0000000000000000 -0.0000000000000000  0.5135785149840076
  0.0000000000000000  0.0000000000000000  0.4081907753439802
  0.3333329854322145  0.6666669831836742  0.5909151518334566
  0.3333329854322145  0.6666669831836742  0.4720423920354719
  0.6666669847440474  0.3333329859851446  0.5545768913730210

  0.00000000E+00  0.00000000E+00  0.00000000E+00
  0.00000000E+00  0.00000000E+00  0.00000000E+00
  0.00000000E+00  0.00000000E+00  0.00000000E+00
  0.00000000E+00  0.00000000E+00  0.00000000E+00
  0.00000000E+00  0.00000000E+00  0.00000000E+00
