Hf-Hf-C-NO-NCS
   1.000
    3.3765128915548446    0.0000000000000000    0.0000000000000000
   -1.6882564457774223    2.9241459402842223    0.0000000000000000
    0.0000000000000000    0.0000000000000000   27.0424724764348561
   C    Hf   N    O    S 
    2    2    2    1    1
Direct
    0.0000000000000000    0.0000000000000000    0.5291050515200393     C1
    0.6666669847440474    0.3333329859851446    0.3901635758692139     C2
    0.3333329854322145    0.6666669831836742    0.4870714757453652    Hf1
    0.6666669847440474    0.3333329859851446    0.5821167751033960    Hf2
    0.3333329854322145    0.6666669831836742    0.6175444257628731     N1
    0.6666669847440474    0.3333329859851446    0.4367846432236411     N2
    0.3333329854322145    0.6666669831836742    0.6671901946893831     O1
    0.6666669847440474    0.3333329859851446    0.3328098053106169     S1
