Y-Y-N-NCO-OH
   1.000
    3.5214912094691435    0.0000000000000000    0.0000000000000000
   -1.7607456047345718    3.0497008465946251    0.0000000000000000
    0.0000000000000000    0.0000000000000000   26.8555499343112594
   C    H    N    O    Y 
    1    1    2    2    2
Direct
    0.3333329854322145    0.6666669831836742    0.6199593203184635     C1
    0.6666669847440474    0.3333329859851445    0.3351262596377294     H1
    0.0000000000000000    0.0000000000000000    0.4697538609529999     N1
    0.3333329854322145    0.6666669831836742    0.5736104953723800     N2
    0.3333329854322145    0.6666669831836742    0.6648737403622706     O1
    0.6666669847440474    0.3333329859851445    0.3718648264597123     O2
    0.3333329854322145    0.6666669831836742    0.4204208110802843     Y1
    0.6666669847440474    0.3333329859851445    0.5197425525894450     Y2
