 Y-Y-C-Cl-Br                            
   1.0000000000000000     
     3.7414671114895852    0.0000000000000000   -0.0000000000000000
    -1.8707335557447928    3.2402055660190245    0.0000000000000000
     0.0000000000000013    0.0000000000000030   24.9003105962163787
   C    Br   Cl   Y 
     1     1     1     2
Direct
 -0.0000000000000000  0.0000000000000000  0.4983790520319615
  0.6666669847440474  0.3333329859851446  0.6300561063610416
  0.3333329854322145  0.6666669831836742  0.3748830352725570
  0.3333329854322145  0.6666669831836742  0.5520701161728577
  0.6666669847440474  0.3333329859851446  0.4445124405384416

  0.00000000E+00  0.00000000E+00  0.00000000E+00
  0.00000000E+00  0.00000000E+00  0.00000000E+00
  0.00000000E+00  0.00000000E+00  0.00000000E+00
  0.00000000E+00  0.00000000E+00  0.00000000E+00
  0.00000000E+00  0.00000000E+00  0.00000000E+00
