Y-Y-N-F-H
   1.000
    3.5051605253446874    0.0000000000000000    0.0000000000000000
   -1.7525802626723437    3.0355580592902931    0.0000000000000000
    0.0000000000000000    0.0000000000000000   22.9431156640412297
   F    H    N    Y 
    1    1    1    2
Direct
    0.3333329854322145    0.6666669831836741    0.6077254662449482     F1
    0.6666669847440473    0.3333329859851446    0.3922745337550518     H1
    0.0000000000000000    0.0000000000000000    0.4986869175285906     N1
    0.3333329854322145    0.6666669831836741    0.4365707420114637     Y1
    0.6666669847440473    0.3333329859851446    0.5534795988758148     Y2
