Ti-Ti-N-F-Cl
   1.000
    3.2522427700314056    0.0000000000000000    0.0000000000000000
   -1.6261213850157028    2.8165248581170297    0.0000000000000000
    0.0000000000000000    0.0000000000000000   22.9160916216049344
   Cl   F    N    Ti
    1    1    1    2
Direct
    0.6666669847440473    0.3333329859851446    0.3927371276310895    Cl1
    0.3333329854322145    0.6666669831836742    0.6072628723689104     F1
    0.0000000000000000    0.0000000000000000    0.5114747749418549     N1
    0.3333329854322145    0.6666669831836742    0.4659071876580844    Ti1
    0.6666669847440473    0.3333329859851446    0.5550057144525867    Ti2
