Y-Y-N-OCl-H
   1.000
    3.5554715564395383    0.0000000000000000    0.0000000000000000
   -1.7777357782197691    3.0791286903323893    0.0000000000000000
    0.0000000000000000    0.0000000000000000   26.4736768652825738
   Cl   H    N    O    Y 
    1    1    1    1    2
Direct
    0.3333329854322145    0.6666669831836741    0.6600396671078754    Cl1
    0.6666669847440474    0.3333329859851446    0.3399603328921245     H1
    0.0000000000000000    0.0000000000000000    0.4232683029918922     N1
    0.3333329854322145    0.6666669831836741    0.5149033581232882     O1
    0.3333329854322145    0.6666669831836741    0.3822267643252153     Y1
    0.6666669847440474    0.3333329859851446    0.4900187760569693     Y2
