Y-Y-C-CN-NCS
   1.000
    3.6938551965141033    0.0000000000000000    0.0000000000000000
   -1.8469275982570517    3.1989724380949536    0.0000000000000000
    0.0000000000000000    0.0000000000000000   27.5676343717879355
   C    N    S    Y 
    3    2    1    2
Direct
    0.0000000000000000    0.0000000000000000    0.5272903758080496     C1
    0.3333329854322145    0.6666669831836742    0.6300218989851610     C2
    0.6666669847440475    0.3333329859851447    0.3830711281353740     C3
    0.3333329854322145    0.6666669831836742    0.6735302028958137     N1
    0.6666669847440475    0.3333329859851447    0.4283296257127178     N2
    0.6666669847440475    0.3333329859851447    0.3264697971041863     S1
    0.3333329854322145    0.6666669831836742    0.4776486126799671     Y1
    0.6666669847440475    0.3333329859851447    0.5763354037034398     Y2
