Y-Y-N-CN-PO
   1.000
    3.5533987367989104    0.0000000000000000    0.0000000000000000
   -1.7766993683994552    3.0773335758531588    0.0000000000000000
    0.0000000000000000    0.0000000000000000   26.9371955135104990
   C    N    O    P    Y 
    1    2    1    1    2
Direct
    0.3333329854322144    0.6666669831836741    0.6213503194969464     C1
    0.0000000000000000    0.0000000000000000    0.5162125582933091     N1
    0.3333329854322144    0.6666669831836741    0.6658894948627446     N2
    0.6666669847440473    0.3333329859851446    0.3341105051372554     O1
    0.6666669847440473    0.3333329859851446    0.3896528455775633     P1
    0.3333329854322144    0.6666669831836741    0.4669926391538612     Y1
    0.6666669847440473    0.3333329859851446    0.5649372076958485     Y2
