Sc-Sc-C-Cl-OH
   1.000
    3.3809062193090327    0.0000000000000000    0.0000000000000000
   -1.6904531096545163    2.9279506737279286    0.0000000000000000
    0.0000000000000000    0.0000000000000000   24.3943038773019154
   C    Cl   H    O    Sc
    1    1    1    1    2
Direct
    0.0000000000000000    0.0000000000000000    0.5107007396678935     C1
    0.3333329854322146    0.6666669831836743    0.6310614131369332    Cl1
    0.6666669847440475    0.3333329859851446    0.3689385868630668     H1
    0.6666669847440475    0.3333329859851446    0.4092786014020032     O1
    0.3333329854322146    0.6666669831836743    0.4589100830503036    Sc1
    0.6666669847440475    0.3333329859851446    0.5612602505195092    Sc2
