Y-Y-C-SCN-F
   1.000
    3.7096290817234951    0.0000000000000000    0.0000000000000000
   -1.8548145408617476    3.2126330234182707    0.0000000000000000
    0.0000000000000000    0.0000000000000000   26.4297023378755469
   C    F    N    S    Y 
    2    1    1    1    2
Direct
    0.0000000000000000    0.0000000000000000    0.4337010171940462     C1
    0.3333329854322145    0.6666669831836742    0.6144427289909227     C2
    0.6666669847440475    0.3333329859851446    0.3405259690383419     F1
    0.3333329854322145    0.6666669831836742    0.6594740309616581     N1
    0.3333329854322145    0.6666669831836742    0.5511642541517320     S1
    0.3333329854322145    0.6666669831836742    0.3820662196954210     Y1
    0.6666669847440475    0.3333329859851446    0.4841707684641260     Y2
