Zr-Zr-N-NCS-F
   1.000
    3.4074503563058856    0.0000000000000000    0.0000000000000000
   -1.7037251781529428    2.9509385706932076    0.0000000000000000
    0.0000000000000000    0.0000000000000000   25.8029476202001291
   C    F    N    S    Zr
    1    1    2    1    2
Direct
    0.3333329854322145    0.6666669831836742    0.5909940678227745     C1
    0.6666669847440474    0.3333329859851446    0.3487973596068632     F1
    0.0000000000000000    0.0000000000000000    0.4421664883893969     N1
    0.3333329854322145    0.6666669831836742    0.5423989843853823     N2
    0.3333329854322145    0.6666669831836742    0.6512026403931368     S1
    0.3333329854322145    0.6666669831836742    0.3994351449150109    Zr1
    0.6666669847440474    0.3333329859851446    0.4888401169080096    Zr2
