Sc-Sc-N-Cl-H
   1.000
    3.2961856756012207    0.0000000000000000    0.0000000000000000
   -1.6480928378006103    2.8545805306558454    0.0000000000000000
    0.0000000000000000    0.0000000000000000   23.1052779240711104
   Cl   H    N    Sc
    1    1    1    2
Direct
    0.3333329854322145    0.6666669831836742    0.6104786088453068    Cl1
    0.6666669847440474    0.3333329859851446    0.3895213911546932     H1
    0.0000000000000000    0.0000000000000000    0.4848430874335965     N1
    0.3333329854322145    0.6666669831836742    0.4317833984667394    Sc1
    0.6666669847440474    0.3333329859851446    0.5361808233704899    Sc2
