Ti-Ti-C-CN-NCS
   1.000
    3.2018903692639844    0.0000000000000000    0.0000000000000000
   -1.6009451846319922    2.7729183998834546    0.0000000000000000
    0.0000000000000000    0.0000000000000000   26.9296645697615631
   C    N    S    Ti
    3    2    1    2
Direct
    0.0000000000000000    0.0000000000000000    0.5278311681561139     C1
    0.3333329854322146    0.6666669831836743    0.6211232812322824     C2
    0.6666669847440474    0.3333329859851447    0.3917623676659462     C3
    0.3333329854322146    0.6666669831836743    0.6657960600777106     N1
    0.6666669847440474    0.3333329859851447    0.4382894956027191     N2
    0.6666669847440474    0.3333329859851447    0.3342039399222894     S1
    0.3333329854322146    0.6666669831836743    0.4855651576291778    Ti1
    0.6666669847440474    0.3333329859851447    0.5692920068798093    Ti2
