Sc-Sc-N-CN-F
   1.000
    3.3314230177377939    0.0000000000000000    0.0000000000000000
   -1.6657115088688970    2.8850969641112787    0.0000000000000000
    0.0000000000000000    0.0000000000000000   24.2049907112806295
   C    F    N    Sc
    1    1    2    2
Direct
    0.3333329854322146    0.6666669831836742    0.5785764533165523     C1
    0.6666669847440474    0.3333329859851446    0.3718241459933959     F1
    0.0000000000000000    0.0000000000000000    0.4675647981209086     N1
    0.3333329854322146    0.6666669831836742    0.6281758540066040     N2
    0.3333329854322146    0.6666669831836742    0.4194512977369840    Sc1
    0.6666669847440474    0.3333329859851446    0.5198144889468905    Sc2
