Hf-Hf-N-NO-OCN
   1.000
    3.2973573701916723    0.0000000000000000    0.0000000000000000
   -1.6486786850958361    2.8555952479429263    0.0000000000000000
    0.0000000000000000    0.0000000000000000   26.8155080375915880
   C    Hf   N    O 
    1    2    3    2
Direct
    0.6666669847440474    0.3333329859851446    0.3798973675797262     C1
    0.3333329854322145    0.6666669831836742    0.4816979557711389    Hf1
    0.6666669847440474    0.3333329859851446    0.5714666755925248    Hf2
    0.0000000000000000    0.0000000000000000    0.5226066287002946     N1
    0.3333329854322145    0.6666669831836742    0.6146197369851261     N2
    0.6666669847440474    0.3333329859851446    0.3356266824176242     N3
    0.3333329854322145    0.6666669831836742    0.6643733175823758     O1
    0.6666669847440474    0.3333329859851446    0.4299714178289438     O2
