Hf-Hf-C-NCS-NCS
   1.000
    3.3714736690756126    0.0000000000000000    0.0000000000000000
   -1.6857368345378063    2.9197818455167175    0.0000000000000000
    0.0000000000000000    0.0000000000000000   28.7476728638838210
   C    Hf   N    S 
    3    2    2    2
Direct
    0.0000000000000000    0.0000000000000000    0.5000000288011700     C1
    0.3333329854322146    0.6666669831836742    0.6329418691734292     C2
    0.6666669847440473    0.3333329859851446    0.3670581308265704     C3
    0.3333329854322146    0.6666669831836742    0.4579627030282057    Hf1
    0.6666669847440473    0.3333329859851446    0.5420372969717865    Hf2
    0.3333329854322146    0.6666669831836742    0.5891749752886661     N1
    0.6666669847440473    0.3333329859851446    0.4108250251380179     N2
    0.3333329854322146    0.6666669831836742    0.6869311807389165     S1
    0.6666669847440473    0.3333329859851446    0.3130688192610835     S2
