Sc-Sc-C-O-H
   1.000
    3.2839346147231074    0.0000000000000000    0.0000000000000000
   -1.6419673073615537    2.8439708007090805    0.0000000000000000
    0.0000000000000000    0.0000000000000000   22.6222069807768129
   C    H    O    Sc
    1    1    1    2
Direct
    0.0000000000000000    0.0000000000000000    0.4955210469899684     C1
    0.6666669847440474    0.3333329859851445    0.3978391678428076     H1
    0.3333329854322145    0.6666669831836742    0.6021608321571924     O1
    0.3333329854322145    0.6666669831836742    0.4430078270700863    Sc1
    0.6666669847440474    0.3333329859851445    0.5703288521751526    Sc2
