Hf-Hf-N-NO-NCO
   1.000
    3.2906178962121206    0.0000000000000000    0.0000000000000000
   -1.6453089481060603    2.8497586922655320    0.0000000000000000
    0.0000000000000000    0.0000000000000000   26.7988162963569820
   C    Hf   N    O 
    1    2    3    2
Direct
    0.6666669847440475    0.3333329859851446    0.3807791308764796     C1
    0.3333329854322145    0.6666669831836742    0.4809227489312580    Hf1
    0.6666669847440475    0.3333329859851446    0.5736471777776947    Hf2
    0.0000000000000000    0.0000000000000000    0.5237348116730296     N1
    0.3333329854322145    0.6666669831836742    0.6142493005850079     N2
    0.6666669847440475    0.3333329859851446    0.4275096029522425     N3
    0.3333329854322145    0.6666669831836742    0.6641642712695689     O1
    0.6666669847440475    0.3333329859851446    0.3358357287304311     O2
