Y-Y-C-NO-OCl
   1.000
    3.7913457654252407    0.0000000000000000    0.0000000000000000
   -1.8956728827126204    3.2834017473984449    0.0000000000000000
    0.0000000000000000    0.0000000000000000   25.6769131101410863
   C    Cl   N    O    Y 
    1    1    1    2    2
Direct
    0.0000000000000000    0.0000000000000000    0.5170663278409515     C1
    0.6666669847440474    0.3333329859851446    0.3505094230523160    Cl1
    0.3333329854322145    0.6666669831836742    0.5998494856254633     N1
    0.3333329854322145    0.6666669831836742    0.6494905769476840     O1
    0.6666669847440474    0.3333329859851446    0.4546230135501459     O2
    0.3333329854322145    0.6666669831836742    0.4276003720929012     Y1
    0.6666669847440474    0.3333329859851446    0.5473166544332302     Y2
