Sc-Sc-C-NO-NCS
   1.000
    3.4089204995510083    0.0000000000000000    0.0000000000000000
   -1.7044602497755041    2.9522117520863298    0.0000000000000000
    0.0000000000000000    0.0000000000000000   27.1356290347664100
   C    N    O    S    Sc
    2    2    1    1    2
Direct
    0.0000000000000000    0.0000000000000000    0.5286069520748544     C1
    0.6666669847440474    0.3333329859851446    0.3890020995776614     C2
    0.3333329854322145    0.6666669831836742    0.6208257662046770     N1
    0.6666669847440474    0.3333329859851446    0.4349579236517649     N2
    0.3333329854322145    0.6666669831836742    0.6683327300624164     O1
    0.6666669847440474    0.3333329859851446    0.3316672699375835     S1
    0.3333329854322145    0.6666669831836742    0.4828090282379688    Sc1
    0.6666669847440474    0.3333329859851446    0.5753369465761642    Sc2
