Hf-Hf-N-SCN-F
   1.000
    3.4135428928484397    0.0000000000000000    0.0000000000000000
   -1.7067714464242199    2.9562148621041100    0.0000000000000000
    0.0000000000000000    0.0000000000000000   26.0427491687468198
   C    F    Hf   N    S 
    1    1    2    2    1
Direct
    0.3333329854322144    0.6666669831836741    0.6087167926427706     C1
    0.6666669847440474    0.3333329859851446    0.3455856346687334     F1
    0.3333329854322144    0.6666669831836741    0.3937198431122918    Hf1
    0.6666669847440474    0.3333329859851446    0.4820219057811557    Hf2
    0.0000000000000000    0.0000000000000000    0.4304471032920116     N1
    0.3333329854322144    0.6666669831836741    0.6544143653312666     N2
    0.3333329854322144    0.6666669831836741    0.5434971870773345     S1
