Sc-Sc-C-CN-Cl
   1.000
    3.4348692702421602    0.0000000000000000    0.0000000000000000
   -1.7174346351210801    2.9746840467070603    0.0000000000000000
    0.0000000000000000    0.0000000000000000   24.7602944595429797
   C    Cl   N    Sc
    2    1    1    2
Direct
    0.0000000000000000    0.0000000000000000    0.4810861433825407     C1
    0.3333329854322145    0.6666669831836742    0.5880931088961663     C2
    0.6666669847440474    0.3333329859851446    0.3634851764265375    Cl1
    0.3333329854322145    0.6666669831836742    0.6365148235734623     N1
    0.3333329854322145    0.6666669831836742    0.4311140937208461    Sc1
    0.6666669847440474    0.3333329859851446    0.5310153426407442    Sc2
