Zr-Zr-C-PO-F
   1.000
    3.3609182085564431    0.0000000000000000    0.0000000000000000
   -1.6804591042782215    2.9106405486489764    0.0000000000000000
    0.0000000000000000    0.0000000000000000   25.3275515857037270
   C    F    O    P    Zr
    1    1    1    1    2
Direct
    0.0000000000000000    0.0000000000000000    0.4550084474099585     C1
    0.6666669847440473    0.3333329859851446    0.3553442570058804     F1
    0.3333329854322144    0.6666669831836741    0.6446557429941195     O1
    0.3333329854322144    0.6666669831836741    0.5857101352589171     P1
    0.3333329854322144    0.6666669831836741    0.4071850764672014    Zr1
    0.6666669847440473    0.3333329859851446    0.5068041454544759    Zr2
