Zr-Zr-N-SCN-SCN
   1.000
    3.5638503342857697    0.0000000000000000    0.0000000000000000
   -1.7819251671428848    3.0863849247529656    0.0000000000000000
    0.0000000000000000    0.0000000000000000   29.3009873757132162
   C    N    S    Zr
    2    3    2    2
Direct
    0.3333329854322146    0.6666669831836742    0.6522030240647210     C1
    0.6666669847440474    0.3333329859851445    0.3477969763099305     C2
    0.0000000000000000    0.0000000000000000    0.5000000252889736     N1
    0.3333329854322146    0.6666669831836742    0.6928431153326986     N2
    0.6666669847440474    0.3333329859851445    0.3071568846673014     N3
    0.3333329854322146    0.6666669831836742    0.5947544620031192     S1
    0.6666669847440474    0.3333329859851445    0.4052455383715323     S2
    0.3333329854322146    0.6666669831836742    0.4614506807256539    Zr1
    0.6666669847440474    0.3333329859851445    0.5385493192743395    Zr2
