Hf-Hf-N-OCl-NCO
   1.000
    3.2216633845212410    0.0000000000000000    0.0000000000000000
   -1.6108316922606216    2.7900423334437301    0.0000000000000000
    0.0000000000000000    0.0000000000000000   28.8302149869400210
   C    Cl   Hf   N    O 
    1    1    2    2    2
Direct
    0.6666669847440474    0.3333329859851446    0.3539579290401651     C1
    0.3333329854322146    0.6666669831836742    0.6878275099898851    Cl1
    0.3333329854322146    0.6666669831836742    0.4468086775278511    Hf1
    0.6666669847440474    0.3333329859851446    0.5369779546899959    Hf2
    0.0000000000000000    0.0000000000000000    0.4917807052153790     N1
    0.6666669847440474    0.3333329859851446    0.3974414629775814     N2
    0.3333329854322146    0.6666669831836742    0.5690784926200495     O1
    0.6666669847440474    0.3333329859851446    0.3121724900101149     O2
