Zr-Zr-C-SCN-F
   1.000
    3.4648867898963909    0.0000000000000000    0.0000000000000000
   -1.7324433949481954    3.0006799812794180    0.0000000000000000
    0.0000000000000000    0.0000000000000000   26.2699407726487024
   C    F    N    S    Zr
    2    1    1    1    2
Direct
    0.0000000000000000    0.0000000000000000    0.4347058690652007     C1
    0.3333329854322145    0.6666669831836742    0.6120783737194712     C2
    0.6666669847440474    0.3333329859851447    0.3425968896500319     F1
    0.3333329854322145    0.6666669831836742    0.6574031103499681     N1
    0.3333329854322145    0.6666669831836742    0.5480325932692390     S1
    0.3333329854322145    0.6666669831836742    0.3914931593540868    Zr1
    0.6666669847440474    0.3333329859851447    0.4835015852049608    Zr2
