Sc-Sc-N-Cl-OH
   1.000
    3.3031256371931570    0.0000000000000000    0.0000000000000000
   -1.6515628185965785    2.8605907136873903    0.0000000000000000
    0.0000000000000000    0.0000000000000000   24.3313387231026645
   Cl   H    N    O    Sc
    1    1    1    1    2
Direct
    0.3333329854322146    0.6666669831836742    0.6301066660399381    Cl1
    0.6666669847440474    0.3333329859851446    0.3698933339600619     H1
    0.0000000000000000    0.0000000000000000    0.5100006842494791     N1
    0.6666669847440474    0.3333329859851446    0.4103986847371494     O1
    0.3333329854322146    0.6666669831836742    0.4603951712418656    Sc1
    0.6666669847440474    0.3333329859851446    0.5597493028852862    Sc2
