Hf-Hf-C-NO-OCN
   1.000
    3.3639118537213011    0.0000000000000000    0.0000000000000000
   -1.6819559268606505    2.9132331214063805    0.0000000000000000
    0.0000000000000000    0.0000000000000000   26.7448308793999381
   C    Hf   N    O 
    2    2    2    2
Direct
    0.0000000000000000    0.0000000000000000    0.5233443768550510     C1
    0.6666669847440474    0.3333329859851446    0.3809264153237683     C2
    0.3333329854322145    0.6666669831836741    0.4824399192453853    Hf1
    0.6666669847440474    0.3333329859851446    0.5776760146416839    Hf2
    0.3333329854322145    0.6666669831836741    0.6132549429742461     N1
    0.6666669847440474    0.3333329859851446    0.3365136254023652     N2
    0.3333329854322145    0.6666669831836741    0.6634863745976348     O1
    0.6666669847440474    0.3333329859851446    0.4310505778604619     O2
