Hf-Hf-N-NCO-NCS
   1.000
    3.3321266211395049    0.0000000000000000    0.0000000000000000
   -1.6660633105697524    2.8857063025300422    0.0000000000000000
    0.0000000000000000    0.0000000000000000   28.3177152336685509
   C    Hf   N    O    S 
    2    2    3    1    1
Direct
    0.3333329854322145    0.6666669831836742    0.6396117861820327     C1
    0.6666669847440474    0.3333329859851446    0.3725253233035627     C2
    0.3333329854322145    0.6666669831836742    0.4644155754805070    Hf1
    0.6666669847440474    0.3333329859851446    0.5454798685504367    Hf2
    0.0000000000000000    0.0000000000000000    0.5056016781009400     N1
    0.3333329854322145    0.6666669831836742    0.5954477858103177     N2
    0.6666669847440474    0.3333329859851446    0.4172249034387497     N3
    0.3333329854322145    0.6666669831836742    0.6821777489555589     O1
    0.6666669847440474    0.3333329859851446    0.3178222510444411     S1
