Zr-Zr-N-OCl-SCN
   1.000
    3.3384610083791619    0.0000000000000000    0.0000000000000000
   -1.6692305041895810    2.8911920427997857    0.0000000000000000
    0.0000000000000000    0.0000000000000000   29.5310637531680200
   C    Cl   N    O    S    Zr
    1    1    2    1    1    2
Direct
    0.6666669847440474    0.3333329859851446    0.3450894450724368     C1
    0.3333329854322145    0.6666669831836742    0.6952361731624211    Cl1
    0.0000000000000000    0.0000000000000000    0.5073082154999112     N1
    0.6666669847440474    0.3333329859851446    0.3047638268375789     N2
    0.3333329854322145    0.6666669831836742    0.5808962219317099     O1
    0.6666669847440474    0.3333329859851446    0.4025495733118648     S1
    0.3333329854322145    0.6666669831836742    0.4595312428216918    Zr1
    0.6666669847440474    0.3333329859851446    0.5510967426499466    Zr2
