Y-Y-C-CN-Cl
   1.000
    3.7167187725223765    0.0000000000000000    0.0000000000000000
   -1.8583593862611882    3.2187728757611791    0.0000000000000000
    0.0000000000000000    0.0000000000000000   25.1132407346405202
   C    Cl   N    Y 
    2    1    1    2
Direct
    0.0000000000000000    0.0000000000000000    0.4817961570067184     C1
    0.3333329854322145    0.6666669831836742    0.5938489953887576     C2
    0.6666669847440474    0.3333329859851447    0.3583766864300252    Cl1
    0.3333329854322145    0.6666669831836742    0.6416233135699749     N1
    0.3333329854322145    0.6666669831836742    0.4279362534290261     Y1
    0.6666669847440474    0.3333329859851447    0.5356896543905927     Y2
