Hf-Hf-N-NCS-H
   1.000
    3.2841685938582112    0.0000000000000000    0.0000000000000000
   -1.6420842969291056    2.8441734325910848    0.0000000000000000
    0.0000000000000000    0.0000000000000000   25.5113890533730299
   C    H    Hf   N    S 
    1    1    2    2    1
Direct
    0.3333329854322145    0.6666669831836742    0.5865716497706832     C1
    0.6666669847440474    0.3333329859851446    0.3527836128864199     H1
    0.3333329854322145    0.6666669831836742    0.3913116777258872    Hf1
    0.6666669847440474    0.3333329859851446    0.4844754157205266    Hf2
    0.0000000000000000    0.0000000000000000    0.4378988784823182     N1
    0.3333329854322145    0.6666669831836742    0.5367294183913691     N2
    0.3333329854322145    0.6666669831836742    0.6472163871135801     S1
