Y-Y-N-NCO-Br
   1.000
    3.6092092589185398    0.0000000000000000    0.0000000000000000
   -1.8046046294592699    3.1256669058066198    0.0000000000000000
    0.0000000000000000    0.0000000000000000   26.4610261902630199
   Br   C    N    O    Y 
    1    1    2    1    2
Direct
    0.6666669847440474    0.3333329859851446    0.3401228635385187    Br1
    0.3333329854322145    0.6666669831836742    0.6142975515847613     C1
    0.0000000000000000    0.0000000000000000    0.4648683791203723     N1
    0.3333329854322145    0.6666669831836742    0.5672064658196319     N2
    0.3333329854322145    0.6666669831836742    0.6598771364614813     O1
    0.3333329854322145    0.6666669831836742    0.4147613793481020     Y1
    0.6666669847440474    0.3333329859851446    0.5136747163106786     Y2
