Ti-Ti-N-H-OCN
   1.000
    3.1298122173545084    0.0000000000000000    0.0000000000000000
   -1.5649061086772542    2.7104968893034536    0.0000000000000000
    0.0000000000000000    0.0000000000000000   24.9069868327164947
   C    H    N    O    Ti
    1    1    2    1    2
Direct
    0.6666669847440475    0.3333329859851447    0.4090123766375927     C1
    0.3333329854322146    0.6666669831836742    0.6386556085468325     H1
    0.0000000000000000    0.0000000000000000    0.5567722154580197     N1
    0.6666669847440475    0.3333329859851447    0.3613443914531675     N2
    0.6666669847440475    0.3333329859851447    0.4626793913850283     O1
    0.3333329854322146    0.6666669831836742    0.5149302835890873    Ti1
    0.6666669847440475    0.3333329859851447    0.5995820154913873    Ti2
