Sc-Sc-N-CN-Cl
   1.000
    3.3505345607262873    0.0000000000000000    0.0000000000000000
   -1.6752672803631437    2.9016480458477156    0.0000000000000000
    0.0000000000000000    0.0000000000000000   24.7207556285577930
   C    Cl   N    Sc
    1    1    2    2
Direct
    0.3333329854322146    0.6666669831836743    0.5873979645682266     C1
    0.6666669847440474    0.3333329859851446    0.3640665412995330    Cl1
    0.0000000000000000    0.0000000000000000    0.4802882751229445     N1
    0.3333329854322146    0.6666669831836743    0.6359334587004670     N2
    0.3333329854322146    0.6666669831836743    0.4326074111804515    Sc1
    0.6666669847440474    0.3333329859851446    0.5298040618068391    Sc2
