Hf-Hf-N-F-Br
   1.000
    3.4017335805410802    0.0000000000000000    0.0000000000000000
   -1.7008667902705401    2.9459876976492647    0.0000000000000000
    0.0000000000000000    0.0000000000000000   23.4353084817821191
   Br   F    Hf   N 
    1    1    2    1
Direct
    0.6666669847440474    0.3333329859851446    0.3840359091921628    Br1
    0.3333329854322145    0.6666669831836742    0.6159640908078372     F1
    0.3333329854322145    0.6666669831836742    0.4669660530533852    Hf1
    0.6666669847440474    0.3333329859851446    0.5614296406112023    Hf2
    0.0000000000000000    0.0000000000000000    0.5170198481575378     N1
