Ti-Ti-N-NCO-F
   1.000
    3.2222613564041258    0.0000000000000000    0.0000000000000000
   -1.6111306782020629    2.7905601922764625    0.0000000000000000
    0.0000000000000000    0.0000000000000000   25.0398095172342430
   C    F    N    O    Ti
    1    1    2    1    2
Direct
    0.3333329854322144    0.6666669831836741    0.5924764433041532     C1
    0.6666669847440473    0.3333329859851446    0.3594276543439971     F1
    0.0000000000000000    0.0000000000000000    0.4476037550889144     N1
    0.3333329854322144    0.6666669831836741    0.5426737636116074     N2
    0.3333329854322144    0.6666669831836741    0.6405723456560029     O1
    0.3333329854322144    0.6666669831836741    0.4073208428682099    Ti1
    0.6666669847440473    0.3333329859851446    0.4896939062559109    Ti2
