Ti-Ti-N-NCS-H
   1.000
    3.1574701982147628    0.0000000000000000    0.0000000000000000
   -1.5787350991073814    2.7344494033537354    0.0000000000000000
    0.0000000000000000    0.0000000000000000   25.1862428504090161
   C    H    N    S    Ti
    1    1    2    1    2
Direct
    0.3333329854322145    0.6666669831836742    0.5811692388597322     C1
    0.6666669847440474    0.3333329859851446    0.3573379345801807     H1
    0.0000000000000000    0.0000000000000000    0.4373735218145579     N1
    0.3333329854322145    0.6666669831836742    0.5313561782991293     N2
    0.3333329854322145    0.6666669831836742    0.6426620654198194     S1
    0.3333329854322145    0.6666669831836742    0.3958428904649579    Ti1
    0.6666669847440474    0.3333329859851446    0.4803304217491095    Ti2
