Ti-Ti-N-NCO-OH
   1.000
    3.1493224983229764    0.0000000000000000    0.0000000000000000
   -1.5746612491614882    2.7273932882637792    0.0000000000000000
    0.0000000000000000    0.0000000000000000   26.1284633770121069
   C    H    N    O    Ti
    1    1    2    2    2
Direct
    0.3333329854322145    0.6666669831836742    0.6094586569849346     C1
    0.6666669847440474    0.3333329859851446    0.3444519438490296     H1
    0.0000000000000000    0.0000000000000000    0.4698847019833904     N1
    0.3333329854322145    0.6666669831836742    0.5617840878526513     N2
    0.3333329854322145    0.6666669831836742    0.6555480561509704     O1
    0.6666669847440474    0.3333329859851446    0.3822246410438791     O2
    0.3333329854322145    0.6666669831836742    0.4293988303136674    Ti1
    0.6666669847440474    0.3333329859851446    0.5104234387175962    Ti2
