Y-Y-N-NCS-SCN
   1.000
    3.6615063272442070    0.0000000000000000    0.0000000000000000
   -1.8307531636221035    3.1709574955140263    0.0000000000000000
    0.0000000000000000    0.0000000000000000   29.3789117552248022
   C    N    S    Y 
    2    3    2    2
Direct
    0.3333329854322145    0.6666669831836741    0.6406199534798172     C1
    0.6666669847440474    0.3333329859851446    0.3468488115313186     C2
    0.0000000000000000    0.0000000000000000    0.5086675421755031     N1
    0.3333329854322145    0.6666669831836741    0.5980846305479204     N2
    0.6666669847440474    0.3333329859851446    0.3063421843186354     N3
    0.3333329854322145    0.6666669831836741    0.6936578156813646     S1
    0.6666669847440474    0.3333329859851446    0.4039743603195985     S2
    0.3333329854322145    0.6666669831836741    0.4629646780995637     Y1
    0.6666669847440474    0.3333329859851446    0.5519217069087303     Y2
