 Y-Y-C-H-H                              
   1.0000000000000000     
     3.5907688965525728   -0.0000000000000001   -0.0000000000000000
    -1.7953844482762862    3.1096970835381237   -0.0000000000000000
     0.0000000000000014    0.0000000000000025   27.0342122431023419
   C    H    Y 
     1     2     2
Direct
  0.0000000000000000 -0.0000000000000000  0.5000000267999951
  0.3333329854322145  0.6666669831836742  0.5901534981782035
  0.6666669847440474  0.3333329859851446  0.4098465018217964
  0.3333329854322145  0.6666669831836742  0.4494273315856206
  0.6666669847440474  0.3333329859851446  0.5505726680143722

  0.00000000E+00  0.00000000E+00  0.00000000E+00
  0.00000000E+00  0.00000000E+00  0.00000000E+00
  0.00000000E+00  0.00000000E+00  0.00000000E+00
  0.00000000E+00  0.00000000E+00  0.00000000E+00
  0.00000000E+00  0.00000000E+00  0.00000000E+00
