Sc-Sc-N-NCS-PO
   1.000
    3.3159786371153377    0.0000000000000000    0.0000000000000000
   -1.6579893185576688    2.8717217381539890    0.0000000000000000
    0.0000000000000000    0.0000000000000000   27.9651400184732850
   C    N    O    P    S    Sc
    1    2    1    1    1    2
Direct
    0.3333329854322146    0.6666669831836742    0.6226906678123046     C1
    0.0000000000000000    0.0000000000000000    0.4884094062196053     N1
    0.3333329854322146    0.6666669831836742    0.5779455375639142     N2
    0.6666669847440474    0.3333329859851446    0.3218292486307867     O1
    0.6666669847440474    0.3333329859851446    0.3752646561686451     P1
    0.3333329854322146    0.6666669831836742    0.6781707513692133     S1
    0.3333329854322146    0.6666669831836742    0.4458185450299855    Sc1
    0.6666669847440474    0.3333329859851446    0.5319017138202461    Sc2
