Ti-Ti-C-NCS-H
   1.000
    3.1580569614150837    0.0000000000000000    0.0000000000000000
   -1.5790284807075419    2.7349575551841654    0.0000000000000000
    0.0000000000000000    0.0000000000000000   25.2931366631554226
   C    H    N    S    Ti
    2    1    1    1    2
Direct
    0.0000000000000000    0.0000000000000000    0.4372301345464829     C1
    0.3333329854322146    0.6666669831836742    0.5829137256795505     C2
    0.6666669847440474    0.3333329859851446    0.3558277535862258     H1
    0.3333329854322146    0.6666669831836742    0.5333637944427820     N1
    0.3333329854322146    0.6666669831836742    0.6441722464137742     S1
    0.3333329854322146    0.6666669831836742    0.3933022551549978    Ti1
    0.6666669847440474    0.3333329859851446    0.4827826655494928    Ti2
