Y-Y-C-Cl-Cl
   1.000
    3.7237626677481672    0.0000000000000000    0.0000000000000000
   -1.8618813338740836    3.2248730679751048    0.0000000000000000
    0.0000000000000000    0.0000000000000000   24.1962797932327476
   C    Cl   Y 
    1    2    2
Direct
    0.0000000000000000    0.0000000000000000    0.5000000278426660     C1
    0.3333329854322145    0.6666669831836742    0.6280419933597754    Cl1
    0.6666669847440474    0.3333329859851447    0.3719580066402247    Cl2
    0.3333329854322145    0.6666669831836742    0.4442641329517735     Y1
    0.6666669847440474    0.3333329859851447    0.5557358666326571     Y2
