Ti-Ti-C-H-OCN
   1.000
    3.1230345075543569    0.0000000000000000    0.0000000000000000
   -1.5615172537771784    2.7046272204254733    0.0000000000000000
    0.0000000000000000    0.0000000000000000   25.0216305288093714
   C    H    N    O    Ti
    2    1    1    1    2
Direct
    0.0000000000000000    0.0000000000000000    0.5568480515267016     C1
    0.6666669847440474    0.3333329859851447    0.4071404253986350     C2
    0.3333329854322145    0.6666669831836742    0.6403112103490780     H1
    0.6666669847440474    0.3333329859851447    0.3596887896509219     N1
    0.6666669847440474    0.3333329859851447    0.4605061809553238     O1
    0.3333329854322145    0.6666669831836742    0.5123061183582902    Ti1
    0.6666669847440474    0.3333329859851447    0.6023647466511848    Ti2
