Ti-Ti-C-NO-H
   1.000
    3.1360613113569569    0.0000000000000000    0.0000000000000000
   -1.5680306556784784    2.7159087634632892    0.0000000000000000
    0.0000000000000000    0.0000000000000000   23.6620279189788469
   C    H    N    O    Ti
    1    1    1    1    2
Direct
    0.0000000000000000    0.0000000000000000    0.4661811401865678     C1
    0.6666669847440475    0.3333329859851446    0.3803562412662558     H1
    0.3333329854322145    0.6666669831836742    0.5643602437936007     N1
    0.3333329854322145    0.6666669831836742    0.6196437587337442     O1
    0.3333329854322145    0.6666669831836742    0.4216284637049063    Ti1
    0.6666669847440475    0.3333329859851446    0.5226918903415105    Ti2
