Ti-Ti-N-O-H
   1.000
    3.0350300654105320    0.0000000000000000    0.0000000000000000
   -1.5175150327052660    2.6284131378960711    0.0000000000000000
    0.0000000000000000    0.0000000000000000   22.3040390318219544
   H    N    O    Ti
    1    1    1    2
Direct
    0.6666669847440474    0.3333329859851446    0.4035143584155042     H1
    0.0000000000000000    0.0000000000000000    0.4984263251621278     N1
    0.3333329854322146    0.6666669831836742    0.5964856415844958     O1
    0.3333329854322146    0.6666669831836742    0.4461908530032024    Ti1
    0.6666669847440474    0.3333329859851446    0.5545388399144073    Ti2
