Zr-Zr-N-NO-Br
   1.000
    3.4227801851721780    0.0000000000000000    0.0000000000000000
   -1.7113900925860890    2.9642145919255167    0.0000000000000000
    0.0000000000000000    0.0000000000000000   24.8647382584348904
   Br   N    O    Zr
    1    2    1    2
Direct
    0.6666669847440474    0.3333329859851446    0.3619583647516145    Br1
    0.0000000000000000    0.0000000000000000    0.4874181325815444     N1
    0.3333329854322146    0.6666669831836743    0.5848565955907317     N2
    0.3333329854322146    0.6666669831836743    0.6380416352483855     O1
    0.3333329854322146    0.6666669831836743    0.4422586616092551    Zr1
    0.6666669847440474    0.3333329859851446    0.5411982994660360    Zr2
