Y-Y-C-OCl-SCN
   1.000
    3.8356395187850665    0.0000000000000000    0.0000000000000000
   -1.9178197593925332    3.3217612630633075    0.0000000000000000
    0.0000000000000000    0.0000000000000000   27.7324505674792086
   C    Cl   N    O    S    Y 
    2    1    1    1    1    2
Direct
    0.0000000000000000    0.0000000000000000    0.5185177439108908     C1
    0.6666669847440474    0.3333329859851445    0.3675883789944958     C2
    0.3333329854322145    0.6666669831836742    0.6754704392927340    Cl1
    0.6666669847440474    0.3333329859851445    0.3245295607072661     N1
    0.3333329854322145    0.6666669831836742    0.5795792257235888     O1
    0.6666669847440474    0.3333329859851445    0.4276719650753105     S1
    0.3333329854322145    0.6666669831836742    0.4933755819672523     Y1
    0.6666669847440474    0.3333329859851445    0.6041100332212086     Y2
