Ti-Ti-C-NCO-H
   1.000
    3.1240717913425562    0.0000000000000000    0.0000000000000000
   -1.5620358956712781    2.7055255345369864    0.0000000000000000
    0.0000000000000000    0.0000000000000000   25.0104181848665306
   C    H    N    O    Ti
    2    1    1    1    2
Direct
    0.0000000000000000    0.0000000000000000    0.4433160947627641     C1
    0.3333329854322145    0.6666669831836742    0.5920242177899004     C2
    0.6666669847440474    0.3333329859851446    0.3598500406300995     H1
    0.3333329854322145    0.6666669831836742    0.5422106153174865     N1
    0.3333329854322145    0.6666669831836742    0.6401499593699005     O1
    0.3333329854322145    0.6666669831836742    0.3980591209853744    Ti1
    0.6666669847440474    0.3333329859851446    0.4885873716543407    Ti2
