Hf-Hf-N-SCN-O
   1.000
    3.3003373167161834    0.0000000000000000    0.0000000000000000
   -1.6501686583580917    2.8581759573258045    0.0000000000000000
    0.0000000000000000    0.0000000000000000   26.1041140391206667
   C    Hf   N    O    S 
    1    2    2    1    1
Direct
    0.3333329854322146    0.6666669831836742    0.6096364919716876     C1
    0.3333329854322146    0.6666669831836742    0.3806127724439528    Hf1
    0.6666669847440474    0.3333329859851446    0.4809502886097420    Hf2
    0.0000000000000000    0.0000000000000000    0.4272974082418606     N1
    0.3333329854322146    0.6666669831836742    0.6552267590268630     N2
    0.6666669847440474    0.3333329859851446    0.3447732409731371     O1
    0.3333329854322146    0.6666669831836742    0.5440347350556936     S1
