Ti-Ti-N-NCS-O
   1.000
    3.1158054717828056    0.0000000000000000    0.0000000000000000
   -1.5579027358914028    2.6983666918212865    0.0000000000000000
    0.0000000000000000    0.0000000000000000   25.3508290353004853
   C    N    O    S    Ti
    1    2    1    1    2
Direct
    0.3333329854322145    0.6666669831836742    0.5839606271350039     C1
    0.0000000000000000    0.0000000000000000    0.4391243837555849     N1
    0.3333329854322145    0.6666669831836742    0.5341277594862046     N2
    0.6666669847440474    0.3333329859851445    0.3550179754463925     O1
    0.3333329854322145    0.6666669831836742    0.6449820245536075     S1
    0.3333329854322145    0.6666669831836742    0.3901934231274992    Ti1
    0.6666669847440474    0.3333329859851445    0.4851623791251540    Ti2
