Sc-Sc-N-NCO-O
   1.000
    3.2906501101736021    0.0000000000000000    0.0000000000000000
   -1.6453250550868010    2.8497865903520467    0.0000000000000000
    0.0000000000000000    0.0000000000000000   25.1554560119249437
   C    N    O    Sc
    1    2    2    2
Direct
    0.3333329854322146    0.6666669831836743    0.5943623101052923     C1
    0.0000000000000000    0.0000000000000000    0.4491797590351469     N1
    0.3333329854322146    0.6666669831836743    0.5449209917273550     N2
    0.3333329854322146    0.6666669831836743    0.6422247326491100     O1
    0.6666669847440474    0.3333329859851446    0.3577752673508900     O2
    0.3333329854322146    0.6666669831836743    0.3855775419177381    Sc1
    0.6666669847440474    0.3333329859851446    0.4897471013858298    Sc2
