Y-Y-C-OCl-OH
   1.000
    3.7432358999413213    0.0000000000000000    0.0000000000000000
   -1.8716179499706607    3.2417373817059327    0.0000000000000000
    0.0000000000000000    0.0000000000000000   25.3846536455093954
   C    Cl   H    O    Y 
    1    1    1    2    2
Direct
    0.0000000000000000    0.0000000000000000    0.4832414281836680     C1
    0.3333329854322145    0.6666669831836741    0.6454550798414334    Cl1
    0.6666669847440474    0.3333329859851445    0.3545449201585668     H1
    0.3333329854322145    0.6666669831836741    0.5399225181812093     O1
    0.6666669847440474    0.3333329859851445    0.3934443956173461     O2
    0.3333329854322145    0.6666669831836741    0.4445212943501266     Y1
    0.6666669847440474    0.3333329859851445    0.5670721448377090     Y2
