Ti-Ti-N-SCN-Cl
   1.000
    3.3148891878414224    0.0000000000000000    0.0000000000000000
   -1.6574445939207112    2.8707782474155299    0.0000000000000000
    0.0000000000000000    0.0000000000000000   26.0987077017499161
   C    Cl   N    S    Ti
    1    1    2    1    2
Direct
    0.3333329854322145    0.6666669831836742    0.6095226548329131     C1
    0.6666669847440474    0.3333329859851445    0.3448446606188302    Cl1
    0.0000000000000000    0.0000000000000000    0.4454792159526914     N1
    0.3333329854322145    0.6666669831836742    0.6551553393811698     N2
    0.3333329854322145    0.6666669831836742    0.5452712841140903     S1
    0.3333329854322145    0.6666669831836742    0.4085970827154294    Ti1
    0.6666669847440474    0.3333329859851445    0.4858856743896766    Ti2
