Zr-Zr-N-OCl-OCl
   1.000
    3.2905401095644118    0.0000000000000000    0.0000000000000000
   -1.6452700547822059    2.8496913270356257    0.0000000000000000
    0.0000000000000000    0.0000000000000000   29.2802470628277725
   Cl   N    O    Zr
    2    1    2    2
Direct
    0.3333329854322145    0.6666669831836742    0.6926255444263039    Cl1
    0.6666669847440474    0.3333329859851444    0.3073744555736961    Cl2
    0.0000000000000000    0.0000000000000000    0.5000000294655358     N1
    0.3333329854322145    0.6666669831836742    0.5781631067461968     O1
    0.6666669847440475    0.3333329859851446    0.4218368932538109     O2
    0.3333329854322145    0.6666669831836742    0.4528649124112047    Zr1
    0.6666669847440475    0.3333329859851446    0.5471350871490113    Zr2
