Sc-Sc-N-CN-Br
   1.000
    3.3947800067024816    0.0000000000000000    0.0000000000000000
   -1.6973900033512408    2.9399657260645502    0.0000000000000000
    0.0000000000000000    0.0000000000000000   24.8558066193076357
   Br   C    N    Sc
    1    1    2    2
Direct
    0.6666669847440474    0.3333329859851445    0.3620884301943727    Br1
    0.3333329854322145    0.6666669831836742    0.5896297542046183     C1
    0.0000000000000000    0.0000000000000000    0.4841735154788523     N1
    0.3333329854322145    0.6666669831836742    0.6379115698056272     N2
    0.3333329854322145    0.6666669831836742    0.4371371697568567    Sc1
    0.6666669847440474    0.3333329859851445    0.5329628952362140    Sc2
