Ti-Ti-N-NO-Cl
   1.000
    3.1644516861472156    0.0000000000000000    0.0000000000000000
   -1.5822258430736078    2.7404955492521563    0.0000000000000000
    0.0000000000000000    0.0000000000000000   24.3656572971918521
   Cl   N    O    Ti
    1    2    1    2
Direct
    0.6666669847440473    0.3333329859851446    0.3693723460945686    Cl1
    0.0000000000000000    0.0000000000000000    0.4821850643087096     N1
    0.3333329854322144    0.6666669831836741    0.5773660244108227     N2
    0.3333329854322144    0.6666669831836741    0.6306276539054314     O1
    0.3333329854322144    0.6666669831836741    0.4398046090568661    Ti1
    0.6666669847440473    0.3333329859851446    0.5306603727950672    Ti2
