Ti-Ti-N-F-OH
   1.000
    3.1960867360457397    0.0000000000000000    0.0000000000000000
   -1.5980433680228698    2.7678923061150003    0.0000000000000000
    0.0000000000000000    0.0000000000000000   23.4535393705720985
   F    H    N    O    Ti
    1    1    1    1    2
Direct
    0.3333329854322145    0.6666669831836742    0.6162626093316821     F1
    0.6666669847440474    0.3333329859851446    0.3837373906683179     H1
    0.0000000000000000    0.0000000000000000    0.5226500321688321     N1
    0.6666669847440474    0.3333329859851446    0.4257789723565615     O1
    0.3333329854322145    0.6666669831836742    0.4775173812806485    Ti1
    0.6666669847440474    0.3333329859851446    0.5656056892949692    Ti2
