Ti-Ti-N-F-H
   1.000
    3.1873242803799959    0.0000000000000000    0.0000000000000000
   -1.5936621401899980    2.7603037969069071    0.0000000000000000
    0.0000000000000000    0.0000000000000000   22.2313848493197774
   F    H    N    Ti
    1    1    1    2
Direct
    0.3333329854322145    0.6666669831836742    0.5951669200546732     F1
    0.6666669847440473    0.3333329859851446    0.4048330799453268     H1
    0.0000000000000000    0.0000000000000000    0.4952687229251077     N1
    0.3333329854322145    0.6666669831836742    0.4477287439877895    Ti1
    0.6666669847440473    0.3333329859851446    0.5409121119146981    Ti2
