Hf-Hf-C-SCN-PO
   1.000
    3.4097601713200372    0.0000000000000000    0.0000000000000000
   -1.7048800856600186    2.9529389291637131    0.0000000000000000
    0.0000000000000000    0.0000000000000000   28.3974033154379519
   C    Hf   N    O    P    S 
    2    2    1    1    1    1
Direct
    0.0000000000000000    0.0000000000000000    0.4800657106094197     C1
    0.3333329854322145    0.6666669831836742    0.6411432428738055     C2
    0.3333329854322145    0.6666669831836742    0.4378776108562993    Hf1
    0.6666669847440475    0.3333329859851446    0.5228448149229603    Hf2
    0.3333329854322145    0.6666669831836742    0.6830696137943273     N1
    0.6666669847440475    0.3333329859851446    0.3169303862056727     O1
    0.6666669847440475    0.3333329859851446    0.3696108657372156     P1
    0.3333329854322145    0.6666669831836742    0.5817379716012205     S1
