Sc-Sc-N-NCS-H
   1.000
    3.2957209130137692    0.0000000000000000    0.0000000000000000
   -1.6478604565068846    2.8541780344511913    0.0000000000000000
    0.0000000000000000    0.0000000000000000   25.5183504960809131
   C    H    N    S    Sc
    1    1    2    1    2
Direct
    0.3333329854322145    0.6666669831836742    0.5865124556393393     C1
    0.6666669847440474    0.3333329859851446    0.3526873730095608     H1
    0.0000000000000000    0.0000000000000000    0.4387205060631889     N1
    0.3333329854322145    0.6666669831836742    0.5374457856685638     N2
    0.3333329854322145    0.6666669831836742    0.6473126269904392     S1
    0.3333329854322145    0.6666669831836742    0.3913698714263548    Sc1
    0.6666669847440474    0.3333329859851446    0.4870902850147066    Sc2
