Ti-Ti-N-F-OCN
   1.000
    3.2225239146429825    0.0000000000000000    0.0000000000000000
   -1.6112619573214912    2.7907875743847241    0.0000000000000000
    0.0000000000000000    0.0000000000000000   25.0309648461045988
   C    F    N    O    Ti
    1    1    2    1    2
Direct
    0.6666669847440474    0.3333329859851446    0.4070084584986869     C1
    0.3333329854322146    0.6666669831836743    0.6404453421858163     F1
    0.0000000000000000    0.0000000000000000    0.5523717720313360     N1
    0.6666669847440474    0.3333329859851446    0.3595546578141837     N2
    0.6666669847440474    0.3333329859851446    0.4603627990947782     O1
    0.3333329854322146    0.6666669831836743    0.5110026838054702    Ti1
    0.6666669847440474    0.3333329859851446    0.5929310128233727    Ti2
