Hf-Hf-N-PO-H
   1.000
    3.1949557090446543    0.0000000000000000    0.0000000000000000
   -1.5974778545223272    2.7669128079978416    0.0000000000000000
    0.0000000000000000    0.0000000000000000   24.9887286109554196
   H    Hf   N    O    P 
    1    2    1    1    1
Direct
    0.6666669847440474    0.3333329859851446    0.3601623812127149     H1
    0.3333329854322145    0.6666669831836742    0.3998818760629146    Hf1
    0.6666669847440474    0.3333329859851446    0.5024497210231064    Hf2
    0.0000000000000000    0.0000000000000000    0.4505910553184619     N1
    0.3333329854322145    0.6666669831836742    0.6398376187872852     O1
    0.3333329854322145    0.6666669831836742    0.5801080925019488     P1
