Hf-Hf-N-Br-OCN
   1.000
    3.4056526090139245    0.0000000000000000    0.0000000000000000
   -1.7028263045069623    2.9493816758647351    0.0000000000000000
    0.0000000000000000    0.0000000000000000   26.0060461257645485
   Br   C    Hf   N    O 
    1    1    2    2    1
Direct
    0.3333329854322145    0.6666669831836742    0.6539266308889771    Br1
    0.6666669847440475    0.3333329859851445    0.3917435815809284     C1
    0.3333329854322145    0.6666669831836742    0.4945312986091221    Hf1
    0.6666669847440475    0.3333329859851445    0.5793137324202376    Hf2
    0.0000000000000000    0.0000000000000000    0.5353272415581531     N1
    0.6666669847440475    0.3333329859851445    0.3460733691110228     N2
    0.6666669847440475    0.3333329859851445    0.4432561626549808     O1
