Y-Y-N-Br-Br
   1.000
    3.6785023303472832    0.0000000000000000    0.0000000000000000
   -1.8392511651736416    3.1856764659702312    0.0000000000000000
    0.0000000000000000    0.0000000000000000   24.4936547554457995
   Br   N    Y 
    2    1    2
Direct
    0.3333329854322146    0.6666669831836742    0.6325578975510389    Br1
    0.6666669847440473    0.3333329859851447    0.3674421024489612    Br2
    0.0000000000000000    0.0000000000000000    0.5000000281856294     N1
    0.3333329854322146    0.6666669831836742    0.4472927034466034     Y1
    0.6666669847440473    0.3333329859851447    0.5527072961327080     Y2
