Ti-Ti-C-CN-SCN
   1.000
    3.2724700497673975    0.0000000000000000    0.0000000000000000
   -1.6362350248836988    2.8340421962104143    0.0000000000000000
    0.0000000000000000    0.0000000000000000   27.2074118409209014
   C    N    S    Ti
    3    2    1    2
Direct
    0.0000000000000000    0.0000000000000000    0.5342106593524951     C1
    0.3333329854322145    0.6666669831836742    0.6249713218843145     C2
    0.6666669847440473    0.3333329859851446    0.3745715587751455     C3
    0.3333329854322145    0.6666669831836742    0.6692077860025007     N1
    0.6666669847440473    0.3333329859851446    0.3307922139974992     N2
    0.6666669847440473    0.3333329859851446    0.4361638660639630     S1
    0.3333329854322145    0.6666669831836742    0.4933729275753988    Ti1
    0.6666669847440473    0.3333329859851446    0.5743237326975543    Ti2
