Sc-Sc-C-PO-Br
   1.000
    3.4450611876323198    0.0000000000000000    0.0000000000000000
   -1.7225305938161599    2.9835105060787845    0.0000000000000000
    0.0000000000000000    0.0000000000000000   25.7880381558009155
   Br   C    O    P    Sc
    1    1    1    1    2
Direct
    0.6666669847440473    0.3333329859851446    0.3489990182900162    Br1
    0.0000000000000000    0.0000000000000000    0.4691373212828730     C1
    0.3333329854322145    0.6666669831836742    0.6510009817099838     O1
    0.3333329854322145    0.6666669831836742    0.5930079459722665     P1
    0.3333329854322145    0.6666669831836742    0.4212421252710914    Sc1
    0.6666669847440473    0.3333329859851446    0.5153369894549610    Sc2
