Hf-Hf-C-CN-F
   1.000
    3.3426231573110541    0.0000000000000000    0.0000000000000000
   -1.6713115786555270    2.8947965695086046    0.0000000000000000
    0.0000000000000000    0.0000000000000000   24.3635437367019207
   C    F    Hf   N 
    2    1    2    1
Direct
    0.0000000000000000    0.0000000000000000    0.4695433747974462     C1
    0.3333329854322146    0.6666669831836742    0.5810643599623826     C2
    0.6666669847440475    0.3333329859851446    0.3694043894953651     F1
    0.3333329854322146    0.6666669831836742    0.4224451862697746    Hf1
    0.6666669847440475    0.3333329859851446    0.5213255175865641    Hf2
    0.3333329854322146    0.6666669831836742    0.6305956105046349     N1
