Sc-Sc-C-OH-OH
   1.000
    3.3073582085963964    0.0000000000000000    0.0000000000000000
   -1.6536791042981982    2.8642562280356492    0.0000000000000000
    0.0000000000000000    0.0000000000000000   24.9731573281701635
   C    H    O    Sc
    1    2    2    2
Direct
    0.0000000000000000    0.0000000000000000    0.5000000341969628     C1
    0.3333329854322146    0.6666669831836742    0.6396130500548347     H1
    0.6666669847440474    0.3333329859851446    0.3603869499451654     H2
    0.3333329854322146    0.6666669831836742    0.6002146412394123     O1
    0.6666669847440474    0.3333329859851446    0.3997853587605968     O2
    0.3333329854322146    0.6666669831836742    0.4493322973003059    Sc1
    0.6666669847440474    0.3333329859851446    0.5506677021892916    Sc2
