Hf-Hf-N-NO-PO
   1.000
    3.2476682701228605    0.0000000000000000    0.0000000000000000
   -1.6238341350614303    2.8125632249816443    0.0000000000000000
    0.0000000000000000    0.0000000000000000   26.4936697842593638
   Hf   N    O    P 
    2    2    2    1
Direct
    0.3333329854322145    0.6666669831836742    0.4686860884661058    Hf1
    0.6666669847440474    0.3333329859851446    0.5667662470290444    Hf2
    0.0000000000000000    0.0000000000000000    0.5173529567861826     N1
    0.3333329854322145    0.6666669831836742    0.6098090954551096     N2
    0.3333329854322145    0.6666669831836742    0.6602962113860438     O1
    0.6666669847440474    0.3333329859851446    0.3397037886139561     O2
    0.6666669847440474    0.3333329859851446    0.3960390129871659     P1
