Sc-Sc-N-OCl-H
   1.000
    3.2433149656690481    0.0000000000000000    0.0000000000000000
   -1.6216574828345240    2.8087931527431058    0.0000000000000000
    0.0000000000000000    0.0000000000000000   27.3409503506448885
   Cl   H    N    O    Sc
    1    1    1    1    2
Direct
    0.3333329854322145    0.6666669831836742    0.6708234393985608    Cl1
    0.6666669847440474    0.3333329859851446    0.3291765606014393     H1
    0.0000000000000000    0.0000000000000000    0.4062781306940645     N1
    0.3333329854322145    0.6666669831836742    0.4913738541330456     O1
    0.3333329854322145    0.6666669831836742    0.3686759730032188    Sc1
    0.6666669847440474    0.3333329859851446    0.4650544470199399    Sc2
