Zr-Zr-C-NCS-O
   1.000
    3.3578701964709130    0.0000000000000000    0.0000000000000000
   -1.6789350982354565    2.9080008927490826    0.0000000000000000
    0.0000000000000000    0.0000000000000000   25.8099218707266793
   C    N    O    S    Zr
    2    1    1    1    2
Direct
    0.0000000000000000    0.0000000000000000    0.4401057415196328     C1
    0.3333329854322146    0.6666669831836742    0.5911689325372740     C2
    0.3333329854322146    0.6666669831836742    0.5424306678530355     N1
    0.6666669847440473    0.3333329859851446    0.3487031090244290     O1
    0.3333329854322146    0.6666669831836742    0.6512968909755710     S1
    0.3333329854322146    0.6666669831836742    0.3852306841015084    Zr1
    0.6666669847440473    0.3333329859851446    0.4893176373353287    Zr2
