Hf-Hf-C-OCl-OCN
   1.000
    3.2734011030087720    0.0000000000000000    0.0000000000000000
   -1.6367005515043858    2.8348485119812961    0.0000000000000000
    0.0000000000000000    0.0000000000000000   28.8707845178942577
   C    Cl   Hf   N    O 
    2    1    2    1    2
Direct
    0.0000000000000000    0.0000000000000000    0.4886151436288931     C1
    0.6666669847440474    0.3333329859851446    0.3528536527781304     C2
    0.3333329854322145    0.6666669831836742    0.6882661780658661    Cl1
    0.3333329854322145    0.6666669831836742    0.4470734706483053    Hf1
    0.6666669847440474    0.3333329859851446    0.5381095519769601    Hf2
    0.6666669847440474    0.3333329859851446    0.3117338219341340     N1
    0.3333329854322145    0.6666669831836742    0.5691063471789148     O1
    0.6666669847440474    0.3333329859851446    0.3993192373943141     O2
