Sc-Sc-C-NCS-Br
   1.000
    3.4781247291241293    0.0000000000000000    0.0000000000000000
   -1.7390623645620646    3.0121443729319597    0.0000000000000000
    0.0000000000000000    0.0000000000000000   26.4008351576986513
   Br   C    N    S    Sc
    1    2    1    1    2
Direct
    0.6666669847440475    0.3333329859851446    0.3408983066725274    Br1
    0.0000000000000000    0.0000000000000000    0.4573468753348932     C1
    0.3333329854322145    0.6666669831836742    0.6001164106450150     C2
    0.3333329854322145    0.6666669831836742    0.5528695337985547     N1
    0.3333329854322145    0.6666669831836742    0.6591016933274725     S1
    0.3333329854322145    0.6666669831836742    0.4113352542250323    Sc1
    0.6666669847440475    0.3333329859851446    0.5044213860281429    Sc2
