Y-Y-N-Cl-OH
   1.000
    3.5580661038002601    0.0000000000000000    0.0000000000000000
   -1.7790330519001301    3.0813756342428849    0.0000000000000000
    0.0000000000000000    0.0000000000000000   24.7298863994445348
   Cl   H    N    O    Y 
    1    1    1    1    2
Direct
    0.3333329854322146    0.6666669831836743    0.6360678793816801    Cl1
    0.6666669847440474    0.3333329859851447    0.3639321206183200     H1
    0.0000000000000000    0.0000000000000000    0.5089611723623312     N1
    0.6666669847440474    0.3333329859851447    0.4038622218029538     O1
    0.3333329854322146    0.6666669831836743    0.4558836287386568     Y1
    0.6666669847440474    0.3333329859851447    0.5630672137256371     Y2
