Sc-Sc-N-H-OCN
   1.000
    3.2551578771205643    0.0000000000000000    0.0000000000000000
   -1.6275789385602821    2.8190494149188612    0.0000000000000000
    0.0000000000000000    0.0000000000000000   25.2064639929067127
   C    H    N    O    Sc
    1    1    2    1    2
Direct
    0.6666669847440475    0.3333329859851447    0.4041591222958620     C1
    0.3333329854322146    0.6666669831836743    0.6429487292413301     H1
    0.0000000000000000    0.0000000000000000    0.5545042345593533     N1
    0.6666669847440475    0.3333329859851447    0.3570512707586699     N2
    0.6666669847440475    0.3333329859851447    0.4571901092508636     O1
    0.3333329854322146    0.6666669831836743    0.5076715717627924    Sc1
    0.6666669847440475    0.3333329859851447    0.6042516434306096    Sc2
