Hf-Hf-C-NO-OH
   1.000
    3.3456337518318500    0.0000000000000000    0.0000000000000000
   -1.6728168759159250    2.8974038208346724    0.0000000000000000
    0.0000000000000000    0.0000000000000000   25.1768655228108038
   C    H    Hf   N    O 
    1    1    2    1    2
Direct
    0.0000000000000000    0.0000000000000000    0.4932024666247352     C1
    0.6666669847440474    0.3333329859851446    0.3574710279897949     H1
    0.3333329854322145    0.6666669831836742    0.4486644379459319    Hf1
    0.6666669847440474    0.3333329859851446    0.5514075488131428    Hf2
    0.3333329854322145    0.6666669831836742    0.5890438987403100     N1
    0.3333329854322145    0.6666669831836742    0.6425289720102052     O1
    0.6666669847440474    0.3333329859851446    0.3967942998536059     O2
