Sc-Sc-C-H-H
   1.000
    3.2937190861788896    0.0000000000000000    0.0000000000000000
   -1.6468595430894448    2.8524444015577295    0.0000000000000000
    0.0000000000000000    0.0000000000000000   22.5607024387381863
   C    H    Sc
    1    2    2
Direct
    0.0000000000000000    0.0000000000000000    0.5000000381678477     C1
    0.3333329854322146    0.6666669831836742    0.6010762508641390     H1
    0.6666669847440474    0.3333329859851446    0.3989237491358610     H2
    0.3333329854322146    0.6666669831836742    0.4441974708365264    Sc1
    0.6666669847440474    0.3333329859851446    0.5558025285937940    Sc2
