Hf-Hf-C-Cl-Cl
   1.000
    3.4041064414807494    0.0000000000000000    0.0000000000000000
   -1.7020532207403747    2.9480426555019426    0.0000000000000000
    0.0000000000000000    0.0000000000000000   23.9093860119277259
   C    Cl   Hf
    1    2    2
Direct
    0.0000000000000000    0.0000000000000000    0.5000000337169834     C1
    0.3333329854322145    0.6666669831836742    0.6235787905423356    Cl1
    0.6666669847440474    0.3333329859851445    0.3764212094576644    Cl2
    0.3333329854322145    0.6666669831836742    0.4512038596669178    Hf1
    0.6666669847440474    0.3333329859851445    0.5487961398298344    Hf2
