Sc-Sc-C-Cl-Cl
   1.000
    3.4502415010346477    0.0000000000000000    0.0000000000000000
   -1.7251207505173238    2.9879967890833532    0.0000000000000000
    0.0000000000000000    0.0000000000000000   23.8103568292883452
   C    Cl   Sc
    1    2    2
Direct
    0.0000000000000000    0.0000000000000000    0.5000000329578224     C1
    0.3333329854322145    0.6666669831836743    0.6220132245590964    Cl1
    0.6666669847440474    0.3333329859851446    0.3779867754409036    Cl2
    0.3333329854322145    0.6666669831836743    0.4482429101280250    Sc1
    0.6666669847440474    0.3333329859851446    0.5517570893800585    Sc2
