Y-Y-N-F-OCN
   1.000
    3.5292339752254702    0.0000000000000000    0.0000000000000000
   -1.7646169876127351    3.0564062784308628    0.0000000000000000
    0.0000000000000000    0.0000000000000000   25.7233473592217941
   C    F    N    O    Y 
    1    1    2    1    2
Direct
    0.6666669847440474    0.3333329859851446    0.3960800047237718     C1
    0.3333329854322145    0.6666669831836742    0.6501232956070350     F1
    0.0000000000000000    0.0000000000000000    0.5519601133544865     N1
    0.6666669847440474    0.3333329859851446    0.3498767043929650     N2
    0.6666669847440474    0.3333329859851446    0.4479423287876425     O1
    0.3333329854322145    0.6666669831836742    0.4998316929640759     Y1
    0.6666669847440474    0.3333329859851446    0.6027264131308294     Y2
