Zr-Zr-C-SCN-O
   1.000
    3.4098153493358643    0.0000000000000000    0.0000000000000000
   -1.7049076746679321    2.9529867147391746    0.0000000000000000
    0.0000000000000000    0.0000000000000000   26.1530850992283561
   C    N    O    S    Zr
    2    1    1    1    2
Direct
    0.0000000000000000    0.0000000000000000    0.4328283327957650     C1
    0.3333329854322145    0.6666669831836742    0.6103356676411816     C2
    0.3333329854322145    0.6666669831836742    0.6558723391197336     N1
    0.6666669847440474    0.3333329859851446    0.3441276608802663     O1
    0.3333329854322145    0.6666669831836742    0.5461387198455047     S1
    0.3333329854322145    0.6666669831836742    0.3788942852196039    Zr1
    0.6666669847440474    0.3333329859851446    0.4806508083171506    Zr2
