Ti-Ti-C-PO-OH
   1.000
    3.1056482491970083    0.0000000000000000    0.0000000000000000
   -1.5528241245985042    2.6895702790183487    0.0000000000000000
    0.0000000000000000    0.0000000000000000   25.9287012728787758
   C    H    O    P    Ti
    1    1    2    1    2
Direct
    0.0000000000000000    0.0000000000000000    0.4781227079849118     C1
    0.6666669847440473    0.3333329859851446    0.3471056997912167     H1
    0.3333329854322146    0.6666669831836742    0.6528943002087833     O1
    0.6666669847440473    0.3333329859851446    0.3852247767142966     O2
    0.3333329854322146    0.6666669831836742    0.5954207997563665     P1
    0.3333329854322146    0.6666669831836742    0.4331067389062322    Ti1
    0.6666669847440473    0.3333329859851446    0.5229269556036209    Ti2
