Y-Y-C-NCS-NCS
   1.000
    3.6826774897690706    0.0000000000000000    0.0000000000000000
   -1.8413387448845353    3.1892922600865008    0.0000000000000000
    0.0000000000000000    0.0000000000000000   29.0868447311442253
   C    N    S    Y 
    3    2    2    2
Direct
    0.0000000000000000    0.0000000000000000    0.5000000238576897     C1
    0.3333329854322145    0.6666669831836742    0.6369045488397556     C2
    0.6666669847440474    0.3333329859851446    0.3630954511602446     C3
    0.3333329854322145    0.6666669831836742    0.5940593861886374     N1
    0.6666669847440474    0.3333329859851446    0.4059406141648100     N2
    0.3333329854322145    0.6666669831836742    0.6905817704467818     S1
    0.6666669847440474    0.3333329859851446    0.3094182295532182     S2
    0.3333329854322145    0.6666669831836742    0.4531734509319723     Y1
    0.6666669847440474    0.3333329859851446    0.5468265490680219     Y2
