Ti-Ti-N-OCl-Br
   1.000
    3.1254115550181925    0.0000000000000000    0.0000000000000000
   -1.5627057775090962    2.7066858039273574    0.0000000000000000
    0.0000000000000000    0.0000000000000000   26.6832049977656354
   Br   Cl   N    O    Ti
    1    1    1    1    2
Direct
    0.6666669847440474    0.3333329859851446    0.3372908164800154    Br1
    0.3333329854322146    0.6666669831836742    0.6627091835199845    Cl1
    0.0000000000000000    0.0000000000000000    0.4497008838545559     N1
    0.3333329854322146    0.6666669831836742    0.5297023606177078     O1
    0.3333329854322146    0.6666669831836742    0.4078932323748010    Ti1
    0.6666669847440474    0.3333329859851446    0.4972274262671249    Ti2
