Hf-Hf-C-OCl-NCS
   1.000
    3.2953996428248686    0.0000000000000000    0.0000000000000000
   -1.6476998214124341    2.8538998063089833    0.0000000000000000
    0.0000000000000000    0.0000000000000000   29.1081498959246758
   C    Cl   Hf   N    O    S 
    2    1    2    1    1    1
Direct
    0.0000000000000000    0.0000000000000000    0.4942844670153664     C1
    0.6666669847440474    0.3333329859851446    0.3623395643753382     C2
    0.3333329854322145    0.6666669831836742    0.6908082433208833    Cl1
    0.3333329854322145    0.6666669831836742    0.4512677678837511    Hf1
    0.6666669847440474    0.3333329859851446    0.5430177164705492    Hf2
    0.6666669847440474    0.3333329859851446    0.4060023194501062     N1
    0.3333329854322145    0.6666669831836742    0.5729119089321855     O1
    0.6666669847440474    0.3333329859851446    0.3091917566791167     S1
