Ti-Ti-C-F-H
   1.000
    3.1758592538467343    0.0000000000000000    0.0000000000000000
   -1.5879296269233671    2.7503747926755597    0.0000000000000000
    0.0000000000000000    0.0000000000000000   22.3330762806741490
   C    F    H    Ti
    1    1    1    2
Direct
    0.0000000000000000    0.0000000000000000    0.4947646388478744     C1
    0.3333329854322145    0.6666669831836742    0.5970102870338503     F1
    0.6666669847440474    0.3333329859851446    0.4029897129661496     H1
    0.3333329854322145    0.6666669831836742    0.4441585275493161    Ti1
    0.6666669847440474    0.3333329859851446    0.5437823133496715    Ti2
