Y-Y-N-F-Cl
   1.000
    3.5569882909932602    0.0000000000000000    0.0000000000000000
   -1.7784941454966301    3.0804422209681452    0.0000000000000000
    0.0000000000000000    0.0000000000000000   23.6600506557004913
   Cl   F    N    Y 
    1    1    1    2
Direct
    0.6666669847440474    0.3333329859851446    0.3803880275223164    Cl1
    0.3333329854322144    0.6666669831836741    0.6196119724776836     F1
    0.0000000000000000    0.0000000000000000    0.5143572463484906     N1
    0.3333329854322144    0.6666669831836741    0.4564724742040286     Y1
    0.6666669847440474    0.3333329859851446    0.5680830648813717     Y2
