Sc-Sc-N-NCO-OH
   1.000
    3.2647075333781026    0.0000000000000000    0.0000000000000000
   -1.6323537666890513    2.8273196598081882    0.0000000000000000
    0.0000000000000000    0.0000000000000000   26.4507209065356896
   C    H    N    O    Sc
    1    1    2    2    2
Direct
    0.3333329854322145    0.6666669831836742    0.6142055409730405     C1
    0.6666669847440474    0.3333329859851446    0.3402553764716559     H1
    0.0000000000000000    0.0000000000000000    0.4697276636532998     N1
    0.3333329854322145    0.6666669831836742    0.5671514521430101     N2
    0.3333329854322145    0.6666669831836742    0.6597446235283442     O1
    0.6666669847440474    0.3333329859851446    0.3775247598476941     O2
    0.3333329854322145    0.6666669831836742    0.4236494014059694    Sc1
    0.6666669847440474    0.3333329859851446    0.5159892095610603    Sc2
