Sc-Sc-C-NO-OCl
   1.000
    3.3139864004065966    0.0000000000000000    0.0000000000000000
   -1.6569932002032983    2.8699964105433908    0.0000000000000000
    0.0000000000000000    0.0000000000000000   27.7553290763701206
   C    Cl   N    O    Sc
    1    1    1    2    2
Direct
    0.0000000000000000    0.0000000000000000    0.5406624089202963     C1
    0.6666669847440474    0.3333329859851446    0.3242620534325523    Cl1
    0.3333329854322145    0.6666669831836742    0.6298571645496454     N1
    0.3333329854322145    0.6666669831836742    0.6757379465674478     O1
    0.6666669847440474    0.3333329859851446    0.4554013381474185     O2
    0.3333329854322145    0.6666669831836742    0.4787676846774344    Sc1
    0.6666669847440474    0.3333329859851446    0.5810894238918141    Sc2
