Ti-Ti-N-Cl-Br
   1.000
    3.2901266514932921    0.0000000000000000    0.0000000000000000
   -1.6450633257466460    2.8493332618571778    0.0000000000000000
    0.0000000000000000    0.0000000000000000   23.5232673010324582
   Br   Cl   N    Ti
    1    1    1    2
Direct
    0.6666669847440474    0.3333329859851447    0.3825999120285889    Br1
    0.3333329854322146    0.6666669831836743    0.6174000879714111    Cl1
    0.0000000000000000    0.0000000000000000    0.5036879173667849     N1
    0.3333329854322146    0.6666669831836743    0.4610748133801374    Ti1
    0.6666669847440474    0.3333329859851447    0.5464972471038030    Ti2
