Ti-Ti-C-NO-Br
   1.000
    3.2582939960138004    0.0000000000000000    0.0000000000000000
   -1.6291469980069002    2.8217653735364370    0.0000000000000000
    0.0000000000000000    0.0000000000000000   24.4088668964824755
   Br   C    N    O    Ti
    1    1    1    1    2
Direct
    0.6666669847440475    0.3333329859851446    0.3687184676850762    Br1
    0.0000000000000000    0.0000000000000000    0.4859818887151332     C1
    0.3333329854322145    0.6666669831836742    0.5774068185700327     N1
    0.3333329854322145    0.6666669831836742    0.6312815323149239     O1
    0.3333329854322145    0.6666669831836742    0.4449451069694099    Ti1
    0.6666669847440475    0.3333329859851446    0.5405629441874608    Ti2
