Hf-Hf-C-NCO-O
   1.000
    3.2811240507287578    0.0000000000000000    0.0000000000000000
   -1.6405620253643789    2.8415367808882701    0.0000000000000000
    0.0000000000000000    0.0000000000000000   25.4446456685274249
   C    Hf   N    O 
    2    2    1    2
Direct
    0.0000000000000000    0.0000000000000000    0.4457885602042932     C1
    0.3333329854322145    0.6666669831836742    0.5989480030106018     C2
    0.3333329854322145    0.6666669831836742    0.3909984863367760    Hf1
    0.6666669847440473    0.3333329859851446    0.4939244513639472    Hf2
    0.3333329854322145    0.6666669831836742    0.5498082773875915     N1
    0.3333329854322145    0.6666669831836742    0.6462910068686030     O1
    0.6666669847440473    0.3333329859851446    0.3537089931313971     O2
