Ti-Ti-N-NO-OCl
   1.000
    3.0949353064806764    0.0000000000000000    0.0000000000000000
   -1.5474676532403382    2.6802925984815582    0.0000000000000000
    0.0000000000000000    0.0000000000000000   29.3059432993094795
   Cl   N    O    Ti
    1    2    2    2
Direct
    0.6666669847440474    0.3333329859851446    0.3071049414134389    Cl1
    0.0000000000000000    0.0000000000000000    0.5697018473074120     N1
    0.3333329854322145    0.6666669831836742    0.6479150649885639     N2
    0.3333329854322145    0.6666669831836742    0.6928950585865612     O1
    0.6666669847440474    0.3333329859851446    0.4983780536575485     O2
    0.3333329854322145    0.6666669831836742    0.5279413871985893    Ti1
    0.6666669847440474    0.3333329859851446    0.6150613581258957    Ti2
