Hf-Hf-C-SCN-OCN
   1.000
    3.4379834167772212    0.0000000000000000    0.0000000000000000
   -1.7189917083886106    2.9773809767183814    0.0000000000000000
    0.0000000000000000    0.0000000000000000   28.7481708141158627
   C    Hf   N    O    S 
    3    2    2    1    1
Direct
    0.0000000000000000    0.0000000000000000    0.4860549812850062     C1
    0.3333329854322145    0.6666669831836742    0.6455268669201852     C2
    0.6666669847440474    0.3333329859851446    0.3543923170587915     C3
    0.3333329854322145    0.6666669831836742    0.4480779868019769    Hf1
    0.6666669847440474    0.3333329859851446    0.5290966129636323    Hf2
    0.3333329854322145    0.6666669831836742    0.6869366034384059     N1
    0.6666669847440474    0.3333329859851446    0.3130633965615940     N2
    0.6666669847440474    0.3333329859851446    0.4010191134825467     O1
    0.3333329854322145    0.6666669831836742    0.5868049396689776     S1
