Sc-Sc-N-OCl-Br
   1.000
    3.3499532508459380    0.0000000000000000    0.0000000000000000
   -1.6749766254229690    2.9011446167187338    0.0000000000000000
    0.0000000000000000    0.0000000000000000   26.8800001216727047
   Br   Cl   N    O    Sc
    1    1    1    1    2
Direct
    0.6666669847440474    0.3333329859851446    0.3348214270558547    Br1
    0.3333329854322145    0.6666669831836742    0.6651785729441453    Cl1
    0.0000000000000000    0.0000000000000000    0.4428794154063647     N1
    0.3333329854322145    0.6666669831836742    0.5264165508793792     O1
    0.3333329854322145    0.6666669831836742    0.4074150455496962    Sc1
    0.6666669847440474    0.3333329859851446    0.5038098270113147    Sc2
