Ti-Ti-C-NCO-OH
   1.000
    3.1459283596657093    0.0000000000000000    0.0000000000000000
   -1.5729641798328546    2.7244538779232310    0.0000000000000000
    0.0000000000000000    0.0000000000000000   26.2820940045955354
   C    H    N    O    Ti
    2    1    1    2    2
Direct
    0.0000000000000000    0.0000000000000000    0.4703948420798342     C1
    0.3333329854322146    0.6666669831836743    0.6117392129637891     C2
    0.6666669847440475    0.3333329859851446    0.3424384677425745     H1
    0.3333329854322146    0.6666669831836743    0.5643572155441337     N1
    0.3333329854322146    0.6666669831836743    0.6575615322574255     O1
    0.6666669847440475    0.3333329859851446    0.3799460623580837     O2
    0.3333329854322146    0.6666669831836743    0.4276075082580517    Ti1
    0.6666669847440475    0.3333329859851446    0.5131526650290766    Ti2
