Y-Y-N-SCN-OCN
   1.000
    3.6464370774259964    0.0000000000000000    0.0000000000000000
   -1.8232185387129982    3.1579071423536207    0.0000000000000000
    0.0000000000000000    0.0000000000000000   29.0061023839351897
   C    N    O    S    Y 
    2    3    1    1    2
Direct
    0.3333329854322145    0.6666669831836742    0.6486833961859526     C1
    0.6666669847440474    0.3333329859851446    0.3512810997109370     C2
    0.0000000000000000    0.0000000000000000    0.4836496166370338     N1
    0.3333329854322145    0.6666669831836742    0.6897204636158019     N2
    0.6666669847440474    0.3333329859851446    0.3102795363841982     N3
    0.6666669847440474    0.3333329859851446    0.3973222493832259     O1
    0.3333329854322145    0.6666669831836742    0.5907885511301685     S1
    0.3333329854322145    0.6666669831836742    0.4413645597877875     Y1
    0.6666669847440474    0.3333329859851446    0.5312433728139574     Y2
