Zr-Zr-N-OCl-Br
   1.000
    3.4798649537013766    0.0000000000000000    0.0000000000000000
   -1.7399324768506883    3.0136514516187782    0.0000000000000000
    0.0000000000000000    0.0000000000000000   25.3412268937979270
   Br   Cl   N    O    Zr
    1    1    1    1    2
Direct
    0.6666669847440474    0.3333329859851446    0.3551524966694759    Br1
    0.3333329854322145    0.6666669831836742    0.6448475033305241    Cl1
    0.0000000000000000    0.0000000000000000    0.4577186580939774     N1
    0.3333329854322145    0.6666669831836742    0.5379372535578780     O1
    0.3333329854322145    0.6666669831836742    0.4361557597413656    Zr1
    0.6666669847440474    0.3333329859851446    0.5720798070246569    Zr2
