Zr-Zr-C-OCl-PO
   1.000
    3.3176297892823055    0.0000000000000000    0.0000000000000000
   -1.6588148946411527    2.8731516778684343    0.0000000000000000
    0.0000000000000000    0.0000000000000000   28.4990429886703964
   C    Cl   O    P    Zr
    1    1    2    1    2
Direct
    0.0000000000000000    0.0000000000000000    0.4815625444199758     C1
    0.3333329854322146    0.6666669831836743    0.6841999219560500    Cl1
    0.3333329854322146    0.6666669831836743    0.5641840757841543     O1
    0.6666669847440474    0.3333329859851446    0.3158000780439500     O2
    0.6666669847440474    0.3333329859851446    0.3681515129218736     P1
    0.3333329854322146    0.6666669831836743    0.4379816755333792    Zr1
    0.6666669847440474    0.3333329859851446    0.5330375322579590    Zr2
