Ti-Ti-N-SCN-Br
   1.000
    3.3576146691910744    0.0000000000000000    0.0000000000000000
   -1.6788073345955372    2.9077795996385256    0.0000000000000000
    0.0000000000000000    0.0000000000000000   26.2264999308751356
   Br   C    N    S    Ti
    1    1    2    1    2
Direct
    0.6666669847440474    0.3333329859851446    0.3431643575666288    Br1
    0.3333329854322145    0.6666669831836742    0.6114293566787503     C1
    0.0000000000000000    0.0000000000000000    0.4490020099466783     N1
    0.3333329854322145    0.6666669831836742    0.6568356424333712     N2
    0.3333329854322145    0.6666669831836742    0.5474328625366769     S1
    0.3333329854322145    0.6666669831836742    0.4130124596170815    Ti1
    0.6666669847440474    0.3333329859851446    0.4888717188755959    Ti2
