Ti-Ti-N-Br-Br
   1.000
    3.3326433072305459    0.0000000000000000    0.0000000000000000
   -1.6663216536152730    2.8861537658100738    0.0000000000000000
    0.0000000000000000    0.0000000000000000   23.6517729627192814
   Br   N    Ti
    2    1    2
Direct
    0.3333329854322146    0.6666669831836742    0.6194788435443677    Br1
    0.6666669847440474    0.3333329859851446    0.3805211564556324    Br2
    0.0000000000000000    0.0000000000000000    0.5000000355616607     N1
    0.3333329854322146    0.6666669831836742    0.4580736039759454    Ti1
    0.6666669847440474    0.3333329859851446    0.5419263954932746    Ti2
