Ti-Ti-C-SCN-OCN
   1.000
    3.2735525852484573    0.0000000000000000    0.0000000000000000
   -1.6367762926242286    2.8349796994570799    0.0000000000000000
    0.0000000000000000    0.0000000000000000   28.4004194500379938
   C    N    O    S    Ti
    3    2    1    1    2
Direct
    0.0000000000000000    0.0000000000000000    0.4877493386127970     C1
    0.3333329854322145    0.6666669831836742    0.6411601402276441     C2
    0.6666669847440474    0.3333329859851447    0.3587574621304824     C3
    0.3333329854322145    0.6666669831836742    0.6831032719135435     N1
    0.6666669847440474    0.3333329859851447    0.3168967280864565     N2
    0.6666669847440474    0.3333329859851447    0.4057480842098344     O1
    0.3333329854322145    0.6666669831836742    0.5821269915702614     S1
    0.3333329854322145    0.6666669831836742    0.4507689114348493    Ti1
    0.6666669847440474    0.3333329859851447    0.5270525476917719    Ti2
