Zr-Zr-C-PO-O
   1.000
    3.3277231364580429    0.0000000000000000    0.0000000000000000
   -1.6638615682290214    2.8818927729280475    0.0000000000000000
    0.0000000000000000    0.0000000000000000   25.1113167457294288
   C    O    P    Zr
    1    2    1    2
Direct
    0.0000000000000000    0.0000000000000000    0.4531956469966211     C1
    0.3333329854322145    0.6666669831836742    0.6415958553216614     O1
    0.6666669847440474    0.3333329859851446    0.3584041446783386     O2
    0.3333329854322145    0.6666669831836742    0.5821565544820254     P1
    0.3333329854322145    0.6666669831836742    0.3959754761260009    Zr1
    0.6666669847440474    0.3333329859851446    0.5030758279732918    Zr2
