Hf-Hf-C-OH-OH
   1.000
    3.2804960583185605    0.0000000000000000    0.0000000000000000
   -1.6402480291592803    2.8409929235090354    0.0000000000000000
    0.0000000000000000    0.0000000000000000   25.0830661482626489
   C    H    Hf   O 
    1    2    2    2
Direct
    0.0000000000000000    0.0000000000000000    0.5000000346069873     C1
    0.3333329854322145    0.6666669831836742    0.6411921913053928     H1
    0.6666669847440474    0.3333329859851445    0.3588078086946070     H2
    0.3333329854322145    0.6666669831836742    0.4514802483253642    Hf1
    0.6666669847440474    0.3333329859851445    0.5485197511581135    Hf2
    0.3333329854322145    0.6666669831836742    0.6016345787577551     O1
    0.6666669847440474    0.3333329859851445    0.3983654212422538     O2
