Zr-Zr-C-H-OCN
   1.000
    3.3536111032214238    0.0000000000000000    0.0000000000000000
   -1.6768055516107119    2.9043124098036639    0.0000000000000000
    0.0000000000000000    0.0000000000000000   25.3925253594574514
   C    H    N    O    Zr
    2    1    1    1    2
Direct
    0.0000000000000000    0.0000000000000000    0.5561231304437164     C1
    0.6666669847440474    0.3333329859851446    0.4012168104061529     C2
    0.3333329854322145    0.6666669831836742    0.6455649892007316     H1
    0.6666669847440474    0.3333329859851446    0.3544350107992685     N1
    0.6666669847440474    0.3333329859851446    0.4537976039226513     O1
    0.3333329854322145    0.6666669831836742    0.5087014212057887    Zr1
    0.6666669847440474    0.3333329859851446    0.6063871518655444    Zr2
