Hf-Hf-N-NO-SCN
   1.000
    3.3774511035454031    0.0000000000000000    0.0000000000000000
   -1.6887255517727016    2.9249584556843011    0.0000000000000000
    0.0000000000000000    0.0000000000000000   27.4052580834464585
   C    Hf   N    O    S 
    1    2    3    1    1
Direct
    0.6666669847440474    0.3333329859851446    0.3718403149233429     C1
    0.3333329854322146    0.6666669831836743    0.4941865490878543    Hf1
    0.6666669847440474    0.3333329859851446    0.5858573716826951    Hf2
    0.0000000000000000    0.0000000000000000    0.5380182337459057     N1
    0.3333329854322146    0.6666669831836743    0.6223772660820538     N2
    0.6666669847440474    0.3333329859851446    0.3284041322506739     N3
    0.3333329854322146    0.6666669831836743    0.6715958677493261     O1
    0.6666669847440474    0.3333329859851446    0.4339631101014808     S1
