Zr-Zr-C-SCN-PO
   1.000
    3.4223742770874312    0.0000000000000000    0.0000000000000000
   -1.7111871385437156    2.9638630651943076    0.0000000000000000
    0.0000000000000000    0.0000000000000000   28.5788917546635659
   C    N    O    P    S    Zr
    2    1    1    1    1    2
Direct
    0.0000000000000000    0.0000000000000000    0.4795597749080659     C1
    0.3333329854322145    0.6666669831836742    0.6434115241146505     C2
    0.3333329854322145    0.6666669831836742    0.6850822601078868     N1
    0.6666669847440474    0.3333329859851446    0.3149177398921132     O1
    0.6666669847440474    0.3333329859851446    0.3671643118119614     P1
    0.3333329854322145    0.6666669831836742    0.5845461240866237     S1
    0.3333329854322145    0.6666669831836742    0.4367378755278209    Zr1
    0.6666669847440474    0.3333329859851446    0.5254243257262345    Zr2
