Hf-Hf-C-O-H
   1.000
    3.2536728681084313    0.0000000000000000    0.0000000000000000
   -1.6268364340542156    2.8177633593827021    0.0000000000000000
    0.0000000000000000    0.0000000000000000   22.6401911711017263
   C    H    Hf   O 
    1    1    2    1
Direct
    0.0000000000000000    0.0000000000000000    0.4982336337597407     C1
    0.6666669847440474    0.3333329859851446    0.3975231450999289     H1
    0.3333329854322145    0.6666669831836742    0.4432052740150035    Hf1
    0.6666669847440474    0.3333329859851446    0.5599347063907043    Hf2
    0.3333329854322145    0.6666669831836742    0.6024768549000712     O1
