Sc-Sc-N-PO-OCN
   1.000
    3.2713418782565520    0.0000000000000000    0.0000000000000000
   -1.6356709391282760    2.8330651710309267    0.0000000000000000
    0.0000000000000000    0.0000000000000000   27.6631100932469316
   C    N    O    P    Sc
    1    2    2    1    2
Direct
    0.6666669847440474    0.3333329859851446    0.3682780547516731     C1
    0.0000000000000000    0.0000000000000000    0.5046489964474523     N1
    0.6666669847440474    0.3333329859851446    0.3253430279409206     N2
    0.3333329854322146    0.6666669831836742    0.6746569720590794     O1
    0.6666669847440474    0.3333329859851446    0.4166467448368573     O2
    0.3333329854322146    0.6666669831836742    0.6206774833966195     P1
    0.3333329854322146    0.6666669831836742    0.4621972701770566    Sc1
    0.6666669847440474    0.3333329859851446    0.5491579088655082    Sc2
