Zr-Zr-C-OCl-H
   1.000
    3.2973795976743543    0.0000000000000000    0.0000000000000000
   -1.6486897988371771    2.8556144975067372    0.0000000000000000
    0.0000000000000000    0.0000000000000000   26.2543280194817328
   C    Cl   H    O    Zr
    1    1    1    1    2
Direct
    0.0000000000000000    0.0000000000000000    0.4305703214384754     C1
    0.3333329854322145    0.6666669831836742    0.6571993770580740    Cl1
    0.6666669847440475    0.3333329859851446    0.3428006229419260     H1
    0.3333329854322145    0.6666669831836742    0.5212620729114201     O1
    0.3333329854322145    0.6666669831836742    0.3824935238020271    Zr1
    0.6666669847440475    0.3333329859851446    0.4859793321630670    Zr2
