Y-Y-N-NCS-Cl
   1.000
    3.6018089707148082    0.0000000000000000    0.0000000000000000
   -1.8009044853574041    3.1192580682191169    0.0000000000000000
    0.0000000000000000    0.0000000000000000   26.6018089051636082
   C    Cl   N    S    Y 
    1    1    2    1    2
Direct
    0.3333329854322145    0.6666669831836743    0.6030953332954068     C1
    0.6666669847440474    0.3333329859851446    0.3383228573697871    Cl1
    0.0000000000000000    0.0000000000000000    0.4544657992551169     N1
    0.3333329854322145    0.6666669831836743    0.5561383537887034     N2
    0.3333329854322145    0.6666669831836743    0.6616771426302128     S1
    0.3333329854322145    0.6666669831836743    0.4055949145065357     Y1
    0.6666669847440474    0.3333329859851446    0.5045844711586833     Y2
