Hf-Hf-C-CN-NCO
   1.000
    3.3325958378126548    0.0000000000000000    0.0000000000000000
   -1.6662979189063274    2.8861126560905843    0.0000000000000000
    0.0000000000000000    0.0000000000000000   26.9783328764575856
   C    Hf   N    O 
    3    2    2    1
Direct
    0.0000000000000000    0.0000000000000000    0.5213869619298597     C1
    0.3333329854322145    0.6666669831836742    0.6216739095273693     C2
    0.6666669847440474    0.3333329859851446    0.3782420261161329     C3
    0.3333329854322145    0.6666669831836742    0.4773549998829696    Hf1
    0.6666669847440474    0.3333329859851446    0.5673849544389060    Hf2
    0.3333329854322145    0.6666669831836742    0.6663989564805994     N1
    0.6666669847440474    0.3333329859851446    0.4245649025597328     N2
    0.6666669847440474    0.3333329859851446    0.3336010435194005     O1
