Hf-Hf-N-Br-Br
   1.000
    3.4688071409855907    0.0000000000000000    0.0000000000000000
   -1.7344035704927954    3.0040751049152536    0.0000000000000000
    0.0000000000000000    0.0000000000000000   24.0306726697650639
   Br   Hf   N 
    2    2    1
Direct
    0.3333329854322145    0.6666669831836742    0.6254786487386337    Br1
    0.6666669847440474    0.3333329859851446    0.3745213512613663    Br2
    0.3333329854322145    0.6666669831836742    0.4547852687955523    Hf1
    0.6666669847440474    0.3333329859851446    0.5452147307222442    Hf2
    0.0000000000000000    0.0000000000000000    0.5000000323070395     N1
