Sc-Sc-C-NO-OH
   1.000
    3.3412632037179115    0.0000000000000000    0.0000000000000000
   -1.6706316018589558    2.8936188151397890    0.0000000000000000
    0.0000000000000000    0.0000000000000000   25.2981553170067812
   C    H    N    O    Sc
    1    1    1    2    2
Direct
    0.0000000000000000    0.0000000000000000    0.4928328277620772     C1
    0.6666669847440474    0.3333329859851446    0.3557571643948962     H1
    0.3333329854322145    0.6666669831836742    0.5933408159318668     N1
    0.3333329854322145    0.6666669831836742    0.6442428356051038     O1
    0.6666669847440474    0.3333329859851446    0.3946499727012642     O2
    0.3333329854322145    0.6666669831836742    0.4428989721128981    Sc1
    0.6666669847440474    0.3333329859851446    0.5433010292975150    Sc2
