Y-Y-N-OCl-NCO
   1.000
    3.7220817895983513    0.0000000000000000    0.0000000000000000
   -1.8610408947991757    3.2234173847361460    0.0000000000000000
    0.0000000000000000    0.0000000000000000   27.0273876081057907
   C    Cl   N    O    Y 
    1    1    2    2    2
Direct
    0.6666669847440474    0.3333329859851445    0.3776659917547686     C1
    0.3333329854322146    0.6666669831836742    0.6670044426601996    Cl1
    0.0000000000000000    0.0000000000000000    0.5043330239475751     N1
    0.6666669847440474    0.3333329859851445    0.4237352454340092     N2
    0.3333329854322146    0.6666669831836742    0.5676261007210944     O1
    0.6666669847440474    0.3333329859851445    0.3329955573398004     O2
    0.3333329854322146    0.6666669831836742    0.4775239738110859     Y1
    0.6666669847440474    0.3333329859851445    0.5937985621298213     Y2
