Sc-Sc-C-NCO-OCN
   1.000
    3.3664805078154676    0.0000000000000000    0.0000000000000000
   -1.6832402539077338    2.9154576411151214    0.0000000000000000
    0.0000000000000000    0.0000000000000000   28.0341266696206048
   C    N    O    Sc
    3    2    2    2
Direct
    0.0000000000000000    0.0000000000000000    0.4993825511824963     C1
    0.3333329854322145    0.6666669831836742    0.6360205205249595     C2
    0.6666669847440474    0.3333329859851446    0.3634239601078554     C3
    0.3333329854322145    0.6666669831836742    0.5915495844267170     N1
    0.6666669847440474    0.3333329859851446    0.3210372880904800     N2
    0.3333329854322145    0.6666669831836742    0.6789627119095200     O1
    0.6666669847440474    0.3333329859851446    0.4111108431877643     O2
    0.3333329854322145    0.6666669831836742    0.4547979562943173    Sc1
    0.6666669847440474    0.3333329859851446    0.5441228047993630    Sc2
