Y-Y-N-CN-NCS
   1.000
    3.5900468731844337    0.0000000000000000    0.0000000000000000
   -1.7950234365922169    3.1090717929500267    0.0000000000000000
    0.0000000000000000    0.0000000000000000   27.5386774099791474
   C    N    S    Y 
    2    3    1    2
Direct
    0.3333329854322145    0.6666669831836742    0.6295959925122685     C1
    0.6666669847440473    0.3333329859851446    0.3833641940951401     C2
    0.0000000000000000    0.0000000000000000    0.5264042676181322     N1
    0.3333329854322145    0.6666669831836742    0.6731869194001785     N2
    0.6666669847440473    0.3333329859851446    0.4287368880922478     N3
    0.6666669847440473    0.3333329859851446    0.3268130805998216     S1
    0.3333329854322145    0.6666669831836742    0.4786854828118725     Y1
    0.6666669847440473    0.3333329859851446    0.5751564266109992     Y2
