Y-Y-N-NCO-F
   1.000
    3.5234799833174524    0.0000000000000000    0.0000000000000000
   -1.7617399916587262    3.0514231752741945    0.0000000000000000
    0.0000000000000000    0.0000000000000000   25.7780821251705738
   C    F    N    O    Y 
    1    1    2    1    2
Direct
    0.3333329854322145    0.6666669831836741    0.6040884165459933     C1
    0.6666669847440474    0.3333329859851445    0.3491338089582740     F1
    0.0000000000000000    0.0000000000000000    0.4467725345745336     N1
    0.3333329854322145    0.6666669831836741    0.5557675605307220     N2
    0.3333329854322145    0.6666669831836741    0.6508661910417260     O1
    0.3333329854322145    0.6666669831836741    0.3968136829366103     Y1
    0.6666669847440474    0.3333329859851445    0.4999270790346876     Y2
