Hf-Hf-C-CN-CN
   1.000
    3.3416325058469432    0.0000000000000000    0.0000000000000000
   -1.6708162529234716    2.8939386401700586    0.0000000000000000
    0.0000000000000000    0.0000000000000000   25.7835311050295815
   C    Hf   N 
    3    2    2
Direct
    0.0000000000000000    0.0000000000000000    0.5000000326883203     C1
    0.3333329854322145    0.6666669831836742    0.6041573756835326     C2
    0.6666669847440474    0.3333329859851446    0.3958426248007392     C3
    0.3333329854322145    0.6666669831836742    0.4525095994575487    Hf1
    0.6666669847440474    0.3333329859851446    0.5474904005424428    Hf2
    0.3333329854322145    0.6666669831836742    0.6509399754696759     N1
    0.6666669847440474    0.3333329859851446    0.3490600245303240     N2
