Y-Y-N-NO-H
   1.000
    3.5737026830452190    0.0000000000000000    0.0000000000000000
   -1.7868513415226095    3.0949173090911217    0.0000000000000000
    0.0000000000000000    0.0000000000000000   24.2405763035083694
   H    N    O    Y 
    1    2    1    2
Direct
    0.6666669847440474    0.3333329859851446    0.3712783016094142     H1
    0.0000000000000000    0.0000000000000000    0.4640647257880891     N1
    0.3333329854322145    0.6666669831836742    0.5738786233620525     N2
    0.3333329854322145    0.6666669831836742    0.6287216983905858     O1
    0.3333329854322145    0.6666669831836742    0.4159905405968719     Y1
    0.6666669847440474    0.3333329859851446    0.5316458933107318     Y2
