Y-Y-N-O-OCN
   1.000
    3.5816384167555242    0.0000000000000000    0.0000000000000000
   -1.7908192083777621    3.1017898560766750    0.0000000000000000
    0.0000000000000000    0.0000000000000000   25.3786265833314424
   C    N    O    Y 
    1    2    2    2
Direct
    0.6666669847440475    0.3333329859851446    0.4014657265978692     C1
    0.0000000000000000    0.0000000000000000    0.5494359885440713     N1
    0.6666669847440475    0.3333329859851446    0.3546291195249768     N2
    0.3333329854322146    0.6666669831836743    0.6453708804750232     O1
    0.6666669847440475    0.3333329859851446    0.4540198530092205     O2
    0.3333329854322146    0.6666669831836743    0.5065295903967056     Y1
    0.6666669847440475    0.3333329859851446    0.6183496624049820     Y2
