Y-Y-C-NCS-Cl
   1.000
    3.7013775389953212    0.0000000000000000    0.0000000000000000
   -1.8506887694976606    3.2054869777883153    0.0000000000000000
    0.0000000000000000    0.0000000000000000   26.6431059244424056
   C    Cl   N    S    Y 
    2    1    1    1    2
Direct
    0.0000000000000000    0.0000000000000000    0.4545131004030003     C1
    0.3333329854322145    0.6666669831836742    0.6035983654846382     C2
    0.6666669847440473    0.3333329859851445    0.3377984543364891    Cl1
    0.3333329854322145    0.6666669831836742    0.5568027967726504     N1
    0.3333329854322145    0.6666669831836742    0.6622015456635109     S1
    0.3333329854322145    0.6666669831836742    0.4039435905204125     Y1
    0.6666669847440473    0.3333329859851445    0.5056967930784551     Y2
