 Sc-Sc-C-Br-Br                          
   1.0000000000000000     
     3.5255768137503170    0.0000000000000000    0.0000000000000000
    -1.7627884068751585    3.0532390837006487    0.0000000000000000
     0.0000000000000017    0.0000000000000030   28.0432449661135017
   C    Br   Sc
     1     2     2
Direct
  0.0000000000000000  0.0000000000000000  0.5000000269999987
  0.3333329854322145  0.6666669831836742  0.3910402941912210
  0.6666669847440474  0.3333329859851446  0.6089597058087790
  0.3333329854322145  0.6666669831836742  0.5432974033776290
  0.6666669847440474  0.3333329859851446  0.4567025966223781

  0.00000000E+00  0.00000000E+00  0.00000000E+00
  0.00000000E+00  0.00000000E+00  0.00000000E+00
  0.00000000E+00  0.00000000E+00  0.00000000E+00
  0.00000000E+00  0.00000000E+00  0.00000000E+00
  0.00000000E+00  0.00000000E+00  0.00000000E+00
