Y-Y-C-Cl-Br
   1.000
    3.7493873188972056    0.0000000000000000    0.0000000000000000
   -1.8746936594486028    3.2470646668395631    0.0000000000000000
    0.0000000000000000    0.0000000000000000   24.3708522298036740
   Br   C    Cl   Y 
    1    1    1    2
Direct
    0.6666669847440474    0.3333329859851446    0.3692936100524912    Br1
    0.0000000000000000    0.0000000000000000    0.5041809825103182     C1
    0.3333329854322146    0.6666669831836743    0.6307063899475087    Cl1
    0.3333329854322146    0.6666669831836743    0.4491787107669183     Y1
    0.6666669847440474    0.3333329859851446    0.5593852099753001     Y2
