Y-Y-C-NCO-OH
   1.000
    3.6226654422795890    0.0000000000000000    0.0000000000000000
   -1.8113327211397945    3.1373203024340515    0.0000000000000000
    0.0000000000000000    0.0000000000000000   26.8924740960427542
   C    H    N    O    Y 
    2    1    1    2    2
Direct
    0.0000000000000000    0.0000000000000000    0.4705235981106592     C1
    0.3333329854322145    0.6666669831836742    0.6204295196323233     C2
    0.6666669847440474    0.3333329859851446    0.3346661213787078     H1
    0.3333329854322145    0.6666669831836742    0.5741533403381522     N1
    0.3333329854322145    0.6666669831836742    0.6653338786212921     O1
    0.6666669847440474    0.3333329859851446    0.3713130477992231     O2
    0.3333329854322145    0.6666669831836742    0.4190262760088719     Y1
    0.6666669847440474    0.3333329859851446    0.5210453513829509     Y2
