Sc-Sc-N-Br-H
   1.000
    3.3434120687907600    0.0000000000000000    0.0000000000000000
   -1.6717060343953800    2.8954797868855136    0.0000000000000000
    0.0000000000000000    0.0000000000000000   23.2366126384670899
   Br   H    N    Sc
    1    1    1    2
Direct
    0.3333329854322144    0.6666669831836742    0.6126802068774460    Br1
    0.6666669847440474    0.3333329859851446    0.3873197931225542     H1
    0.0000000000000000    0.0000000000000000    0.4809506463051585     N1
    0.3333329854322144    0.6666669831836742    0.4287035758393428    Sc1
    0.6666669847440474    0.3333329859851446    0.5315229161814939    Sc2
