Zr-Zr-N-NCS-Br
   1.000
    3.4672089855819581    0.0000000000000000    0.0000000000000000
   -1.7336044927909791    3.0026910617330707    0.0000000000000000
    0.0000000000000000    0.0000000000000000   26.4156836653962017
   Br   C    N    S    Zr
    1    1    2    1    2
Direct
    0.6666669847440474    0.3333329859851446    0.3407066844834209    Br1
    0.3333329854322145    0.6666669831836742    0.6004257794727553     C1
    0.0000000000000000    0.0000000000000000    0.4582053611833389     N1
    0.3333329854322145    0.6666669831836742    0.5529685507727669     N2
    0.3333329854322145    0.6666669831836742    0.6592933155165791     S1
    0.3333329854322145    0.6666669831836742    0.4150964667865754    Zr1
    0.6666669847440474    0.3333329859851446    0.5012055214795390    Zr2
