Hf-Hf-C-NCS-OH
   1.000
    3.3288774083798711    0.0000000000000000    0.0000000000000000
   -1.6644387041899356    2.8828924016934008    0.0000000000000000
    0.0000000000000000    0.0000000000000000   26.9051316474786084
   C    H    Hf   N    O    S 
    2    1    2    1    1    1
Direct
    0.0000000000000000    0.0000000000000000    0.4642691042729102     C1
    0.3333329854322145    0.6666669831836742    0.6078544694033868     C2
    0.6666669847440474    0.3333329859851447    0.3345086773007270     H1
    0.3333329854322145    0.6666669831836742    0.4202525942303440    Hf1
    0.6666669847440474    0.3333329859851447    0.5104877332312447    Hf2
    0.3333329854322145    0.6666669831836742    0.5610111131662137     N1
    0.6666669847440474    0.3333329859851447    0.3713019862583707     O1
    0.3333329854322145    0.6666669831836742    0.6654913226992730     S1
