Ti-Ti-N-NO-PO
   1.000
    3.0954414443610614    0.0000000000000000    0.0000000000000000
   -1.5477207221805307    2.6807309267441268    0.0000000000000000
    0.0000000000000000    0.0000000000000000   26.1374544993148774
   N    O    P    Ti
    2    2    1    2
Direct
    0.0000000000000000    0.0000000000000000    0.5152193409301508     N1
    0.3333329854322146    0.6666669831836742    0.6060387469493289     N2
    0.3333329854322146    0.6666669831836742    0.6556665454841477     O1
    0.6666669847440474    0.3333329859851446    0.3443334545158524     O2
    0.6666669847440474    0.3333329859851446    0.4013029209551053     P1
    0.3333329854322146    0.6666669831836742    0.4714765501307339    Ti1
    0.6666669847440474    0.3333329859851446    0.5618212085846639    Ti2
