Hf-Hf-N-CN-OH
   1.000
    3.2966794657281389    0.0000000000000000    0.0000000000000000
   -1.6483397328640694    2.8550081654517911    0.0000000000000000
    0.0000000000000000    0.0000000000000000   25.3002207817263063
   C    H    Hf   N    O 
    1    1    2    2    1
Direct
    0.3333329854322145    0.6666669831836742    0.5965130039466775     C1
    0.6666669847440474    0.3333329859851446    0.3557281210170492     H1
    0.3333329854322145    0.6666669831836742    0.4462837212516254    Hf1
    0.6666669847440474    0.3333329859851446    0.5384581919359736    Hf2
    0.0000000000000000    0.0000000000000000    0.4909510532401924     N1
    0.3333329854322145    0.6666669831836742    0.6442718789829507     N2
    0.6666669847440474    0.3333329859851446    0.3950306159154954     O1
