Hf-Hf-N-CN-SCN
   1.000
    3.3993337577695431    0.0000000000000000    0.0000000000000000
   -1.6996668788847715    2.9439093901656590    0.0000000000000000
    0.0000000000000000    0.0000000000000000   27.4847306926072505
   C    Hf   N    S 
    2    2    3    1
Direct
    0.3333329854322145    0.6666669831836742    0.6285247632120086     C1
    0.6666669847440473    0.3333329859851446    0.3707681893110606     C2
    0.3333329854322145    0.6666669831836742    0.4919675664448184    Hf1
    0.6666669847440473    0.3333329859851446    0.5764130285698510    Hf2
    0.0000000000000000    0.0000000000000000    0.5367066816358572     N1
    0.3333329854322145    0.6666669831836742    0.6725454543958551     N2
    0.6666669847440473    0.3333329859851446    0.3274545456041449     N3
    0.6666669847440473    0.3333329859851446    0.4324269987020868     S1
