Zr-Zr-C-OCl-Br
   1.000
    3.6233662750702722    0.0000000000000000    0.0000000000000000
   -1.8116831375351361    3.1379272414108397    0.0000000000000000
    0.0000000000000000    0.0000000000000000   24.6433740903727561
   Br   C    Cl   O    Zr
    1    1    1    1    2
Direct
    0.6666669847440474    0.3333329859851445    0.3652097300878925    Br1
    0.0000000000000000    0.0000000000000000    0.4810394313801588     C1
    0.3333329854322145    0.6666669831836742    0.6347902699121075    Cl1
    0.3333329854322145    0.6666669831836742    0.5325896265482821     O1
    0.3333329854322145    0.6666669831836742    0.4448144390533746    Zr1
    0.6666669847440474    0.3333329859851445    0.5491905900478904    Zr2
