Zr-Zr-C-O-Cl
   1.000
    3.3617689457607360    0.0000000000000000    0.0000000000000000
   -1.6808844728803680    2.9113773086787154    0.0000000000000000
    0.0000000000000000    0.0000000000000000   23.4165609779883397
   C    Cl   O    Zr
    1    1    1    2
Direct
    0.0000000000000000    0.0000000000000000    0.5146110958574932     C1
    0.6666669847440475    0.3333329859851447    0.3843433717043266    Cl1
    0.3333329854322145    0.6666669831836742    0.6156566282956735     O1
    0.3333329854322145    0.6666669831836742    0.4617323399575760    Zr1
    0.6666669847440475    0.3333329859851447    0.5753795187795077    Zr2
