Hf-Hf-N-Cl-OH
   1.000
    3.3334054241181472    0.0000000000000000    0.0000000000000000
   -1.6667027120590736    2.8868137783824444    0.0000000000000000
    0.0000000000000000    0.0000000000000000   24.3264669692514985
   Cl   H    Hf   N    O 
    1    1    2    1    1
Direct
    0.3333329854322145    0.6666669831836742    0.6300325891393952    Cl1
    0.6666669847440474    0.3333329859851446    0.3699674108606048     H1
    0.3333329854322145    0.6666669831836742    0.4629589994936143    Hf1
    0.6666669847440474    0.3333329859851446    0.5566768239296398    Hf2
    0.0000000000000000    0.0000000000000000    0.5087095299739003     N1
    0.6666669847440474    0.3333329859851446    0.4108389481805564     O1
