Sc-Sc-C-CN-SCN
   1.000
    3.5032415923190148    0.0000000000000000    0.0000000000000000
   -1.7516207961595074    3.0338962145284136    0.0000000000000000
    0.0000000000000000    0.0000000000000000   27.5107437562698678
   C    N    S    Sc
    3    2    1    2
Direct
    0.0000000000000000    0.0000000000000000    0.5346669673859945     C1
    0.3333329854322145    0.6666669831836742    0.6292360569826561     C2
    0.6666669847440474    0.3333329859851446    0.3704197958378948     C3
    0.3333329854322145    0.6666669831836742    0.6728550823730877     N1
    0.6666669847440474    0.3333329859851446    0.3271449176269124     N2
    0.6666669847440474    0.3333329859851446    0.4312241477740582     S1
    0.3333329854322145    0.6666669831836742    0.4905320073051215    Sc1
    0.6666669847440474    0.3333329859851446    0.5792829178806946    Sc2
