 Y-Y-C-Br-Br                            
   1.0000000000000000     
     3.7664645591268875   -0.0000000000000001   -0.0000000000000000
    -1.8832322795634435    3.2618539906994601    0.0000000000000001
     0.0000000000000016    0.0000000000000023   24.5708883132711584
   C    Br   Y 
     1     2     2
Direct
  0.0000000000000000  0.0000000000000000  0.5000000269999987
  0.3333329854322145  0.6666669831836742  0.3671143984232695
  0.6666669847440474  0.3333329859851446  0.6328856015767306
  0.3333329854322145  0.6666669831836742  0.5542561999658251
  0.6666669847440474  0.3333329859851446  0.4457438000341677

  0.00000000E+00  0.00000000E+00  0.00000000E+00
  0.00000000E+00  0.00000000E+00  0.00000000E+00
  0.00000000E+00  0.00000000E+00  0.00000000E+00
  0.00000000E+00  0.00000000E+00  0.00000000E+00
  0.00000000E+00  0.00000000E+00  0.00000000E+00
