Hf-Hf-C-F-F
   1.000
    3.3495216548846791    0.0000000000000000    0.0000000000000000
   -1.6747608274423396    2.9007708436542732    0.0000000000000000
    0.0000000000000000    0.0000000000000000   22.9701360754917943
   C    F    Hf
    1    2    2
Direct
    0.0000000000000000    0.0000000000000000    0.5000000362488516     C1
    0.3333329854322145    0.6666669831836742    0.6081869097152353     F1
    0.6666669847440474    0.3333329859851446    0.3918130902847649     F2
    0.3333329854322145    0.6666669831836742    0.4487922170277727    Hf1
    0.6666669847440474    0.3333329859851446    0.5512077824311898    Hf2
