Sc-Sc-C-OCl-Cl
   1.000
    3.4308213749998688    0.0000000000000000    0.0000000000000000
   -1.7154106874999344    2.9711784665652994    0.0000000000000000
    0.0000000000000000    0.0000000000000000   24.9983509530538690
   C    Cl   O    Sc
    1    2    1    2
Direct
    0.0000000000000000    0.0000000000000000    0.4759182881552917     C1
    0.3333329854322145    0.6666669831836742    0.6399762521575234    Cl1
    0.6666669847440474    0.3333329859851446    0.3600237478424766    Cl2
    0.3333329854322145    0.6666669831836742    0.5699467423669793     O1
    0.3333329854322145    0.6666669831836742    0.4273675660227302    Sc1
    0.6666669847440474    0.3333329859851446    0.5268838343982000    Sc2
