Y-Y-C-Cl-OCN
   1.000
    3.6909091511439369    0.0000000000000000    0.0000000000000000
   -1.8454545755719685    3.1964210879666766    0.0000000000000000
    0.0000000000000000    0.0000000000000000   26.2422963965993219
   C    Cl   N    O    Y 
    2    1    1    1    2
Direct
    0.0000000000000000    0.0000000000000000    0.5383842236260186     C1
    0.6666669847440474    0.3333329859851446    0.3882897699820841     C2
    0.3333329854322145    0.6666669831836742    0.6570422091122221    Cl1
    0.6666669847440474    0.3333329859851446    0.3429577908877779     N1
    0.6666669847440474    0.3333329859851446    0.4390846354729335     O1
    0.3333329854322145    0.6666669831836742    0.4867748173505517     Y1
    0.6666669847440474    0.3333329859851446    0.5901700193676866     Y2
