Zr-Zr-N-Br-Br
   1.000
    3.5181757093045922    0.0000000000000000    0.0000000000000000
   -1.7590878546522961    3.0468295392276317    0.0000000000000000
    0.0000000000000000    0.0000000000000000   24.1163557266818103
   Br   N    Zr
    2    1    2
Direct
    0.3333329854322145    0.6666669831836742    0.6268092865273754    Br1
    0.6666669847440474    0.3333329859851447    0.3731907134726246    Br2
    0.0000000000000000    0.0000000000000000    0.5000000312951234     N1
    0.3333329854322145    0.6666669831836742    0.4538781663052697    Zr1
    0.6666669847440474    0.3333329859851447    0.5461218332276306    Zr2
