Zr-Zr-N-NCS-O
   1.000
    3.3165451409903546    0.0000000000000000    0.0000000000000000
   -1.6582725704951773    2.8722123448911843    0.0000000000000000
    0.0000000000000000    0.0000000000000000   25.7632447926905570
   C    N    O    S    Zr
    1    2    1    1    2
Direct
    0.3333329854322145    0.6666669831836742    0.5904811198340749     C1
    0.0000000000000000    0.0000000000000000    0.4372828859969725     N1
    0.3333329854322145    0.6666669831836742    0.5416083129540727     N2
    0.6666669847440474    0.3333329859851446    0.3493348789106503     O1
    0.3333329854322145    0.6666669831836742    0.6506651210893497     S1
    0.3333329854322145    0.6666669831836742    0.3867999580307115    Zr1
    0.6666669847440474    0.3333329859851446    0.4884008534469614    Zr2
