Hf-Hf-N-NCS-Cl
   1.000
    3.3708936695591176    0.0000000000000000    0.0000000000000000
   -1.6854468347795588    2.9192795512871053    0.0000000000000000
    0.0000000000000000    0.0000000000000000   26.1846445543683792
   C    Cl   Hf   N    S 
    1    1    2    2    1
Direct
    0.3333329854322146    0.6666669831836742    0.5970767016376096     C1
    0.6666669847440474    0.3333329859851446    0.3437128955985210    Cl1
    0.3333329854322146    0.6666669831836742    0.4117695136311339    Hf1
    0.6666669847440474    0.3333329859851446    0.4981143492115289    Hf2
    0.0000000000000000    0.0000000000000000    0.4546114295094454     N1
    0.3333329854322146    0.6666669831836742    0.5487648025631446     N2
    0.3333329854322146    0.6666669831836742    0.6562871044014790     S1
