Ti-Ti-N-NCO-H
   1.000
    3.1285659365172109    0.0000000000000000    0.0000000000000000
   -1.5642829682586055    2.7094175784395960    0.0000000000000000
    0.0000000000000000    0.0000000000000000   24.8960150038206081
   C    H    N    O    Ti
    1    1    2    1    2
Direct
    0.3333329854322145    0.6666669831836742    0.5901382414356917     C1
    0.6666669847440475    0.3333329859851446    0.3615036381773885     H1
    0.0000000000000000    0.0000000000000000    0.4432947316280309     N1
    0.3333329854322145    0.6666669831836742    0.5400725637778578     N2
    0.3333329854322145    0.6666669831836742    0.6384963618226116     O1
    0.3333329854322145    0.6666669831836742    0.4006830869724911    Ti1
    0.6666669847440475    0.3333329859851446    0.4859687670565680    Ti2
