Zr-Zr-N-F-Cl
   1.000
    3.4156077865531134    0.0000000000000000    0.0000000000000000
   -1.7078038932765567    2.9580031125145436    0.0000000000000000
    0.0000000000000000    0.0000000000000000   23.3703532822634799
   Cl   F    N    Zr
    1    1    1    2
Direct
    0.6666669847440474    0.3333329859851446    0.3851032926759559    Cl1
    0.3333329854322146    0.6666669831836743    0.6148967073240441     F1
    0.0000000000000000    0.0000000000000000    0.5126815484590515     N1
    0.3333329854322146    0.6666669831836743    0.4618537347537781    Zr1
    0.6666669847440474    0.3333329859851446    0.5595796418820203    Zr2
