Ti-Ti-C-O-Cl
   1.000
    3.1305176270923529    0.0000000000000000    0.0000000000000000
   -1.5652588135461765    2.7111077920518953    0.0000000000000000
    0.0000000000000000    0.0000000000000000   23.0486701133365486
   C    Cl   O    Ti
    1    1    1    2
Direct
    0.0000000000000000    0.0000000000000000    0.5130279587653117     C1
    0.6666669847440473    0.3333329859851447    0.3904780603715774    Cl1
    0.3333329854322146    0.6666669831836743    0.6095219396284226     O1
    0.3333329854322146    0.6666669831836743    0.4645796882296327    Ti1
    0.6666669847440473    0.3333329859851447    0.5708763471647089    Ti2
