Hf-Hf-N-Cl-Br
   1.000
    3.4336027194738503    0.0000000000000000    0.0000000000000000
   -1.7168013597369252    2.9735871815596169    0.0000000000000000
    0.0000000000000000    0.0000000000000000   23.8894278299602085
   Br   Cl   Hf   N 
    1    1    2    1
Direct
    0.6666669847440474    0.3333329859851446    0.3767356867673876    Br1
    0.3333329854322145    0.6666669831836742    0.6232643132326126    Cl1
    0.3333329854322145    0.6666669831836742    0.4579198618461833    Hf1
    0.6666669847440474    0.3333329859851446    0.5497432836026532    Hf2
    0.0000000000000000    0.0000000000000000    0.5041047970322796     N1
