Sc-Sc-N-PO-O
   1.000
    3.2733805470433781    0.0000000000000000    0.0000000000000000
   -1.6366902735216891    2.8348307099869481    0.0000000000000000
    0.0000000000000000    0.0000000000000000   24.8707915380310602
   N    O    P    Sc
    1    2    1    2
Direct
    0.0000000000000000    0.0000000000000000    0.4549040442293564     N1
    0.3333329854322145    0.6666669831836741    0.6381297319694192     O1
    0.6666669847440474    0.3333329859851446    0.3618702680305808     O2
    0.3333329854322145    0.6666669831836741    0.5780780678473090     P1
    0.3333329854322145    0.6666669831836741    0.3902178123377356    Sc1
    0.6666669847440474    0.3333329859851446    0.4952207790400060    Sc2
