 La-La-C-Br-Br                          
   1.0000000000000000     
     4.0512084577767240    0.0000000000000002    0.0000000000000003
    -2.0256042288883629    3.5084494404457280    0.0000000000000004
     0.0000000000000043    0.0000000000000058   21.2382851282432377
   C    Br   La
     1     2     2
Direct
 -0.0000000000000000 -0.0000000000000000  0.5000000267999951
  0.3333329854322145  0.6666669831836742  0.6624257573575397
  0.6666669847440474  0.3333329859851446  0.3375742426424606
  0.3333329854322145  0.6666669831836742  0.4313363841608902
  0.6666669847440474  0.3333329859851446  0.5686636154390959

  0.00000000E+00  0.00000000E+00  0.00000000E+00
  0.00000000E+00  0.00000000E+00  0.00000000E+00
  0.00000000E+00  0.00000000E+00  0.00000000E+00
  0.00000000E+00  0.00000000E+00  0.00000000E+00
  0.00000000E+00  0.00000000E+00  0.00000000E+00
