Sc-Sc-C-CN-NCO
   1.000
    3.3896150541766037    0.0000000000000000    0.0000000000000000
   -1.6948075270883018    2.9354927459642757    0.0000000000000000
    0.0000000000000000    0.0000000000000000   26.9022743371291746
   C    N    O    Sc
    3    2    1    2
Direct
    0.0000000000000000    0.0000000000000000    0.5214612848140692     C1
    0.3333329854322145    0.6666669831836742    0.6209026174325926     C2
    0.6666669847440474    0.3333329859851446    0.3793104854883798     C3
    0.3333329854322145    0.6666669831836742    0.6654557942865578     N1
    0.6666669847440474    0.3333329859851446    0.4256533355293365     N2
    0.6666669847440474    0.3333329859851446    0.3345442057134422     O1
    0.3333329854322145    0.6666669831836742    0.4748961317969687    Sc1
    0.6666669847440474    0.3333329859851446    0.5676605070141580    Sc2
