Ti-Ti-C-CN-Br
   1.000
    3.2479950364539811    0.0000000000000000    0.0000000000000000
   -1.6239975182269906    2.8128462129349052    0.0000000000000000
    0.0000000000000000    0.0000000000000000   24.6347444196010485
   Br   C    N    Ti
    1    2    1    2
Direct
    0.6666669847440473    0.3333329859851446    0.3653376648323982    Br1
    0.0000000000000000    0.0000000000000000    0.4841596573602831     C1
    0.3333329854322145    0.6666669831836742    0.5858116195181717     C2
    0.3333329854322145    0.6666669831836742    0.6346623351676017     N1
    0.3333329854322145    0.6666669831836742    0.4401879781531913    Ti1
    0.6666669847440473    0.3333329859851446    0.5296336615909604    Ti2
