Ti-Ti-N-CN-OCN
   1.000
    3.1743543053737078    0.0000000000000000    0.0000000000000000
   -1.5871771526868539    2.7490714690538698    0.0000000000000000
    0.0000000000000000    0.0000000000000000   26.5226857334665347
   C    N    O    Ti
    2    3    1    2
Direct
    0.3333329854322145    0.6666669831836742    0.6153214614975346     C1
    0.6666669847440474    0.3333329859851446    0.3841155897790073     C2
    0.0000000000000000    0.0000000000000000    0.5216405801019002     N1
    0.3333329854322145    0.6666669831836742    0.6606678490088307     N2
    0.6666669847440474    0.3333329859851446    0.3393321509911694     N3
    0.6666669847440474    0.3333329859851446    0.4344953531643685     O1
    0.3333329854322145    0.6666669831836742    0.4829312863060972    Ti1
    0.6666669847440474    0.3333329859851446    0.5619725396885693    Ti2
