Y-Y-N-NO-OCN
   1.000
    3.6185021931871608    0.0000000000000000    0.0000000000000000
   -1.8092510965935804    3.1337148229504188    0.0000000000000000
    0.0000000000000000    0.0000000000000000   26.9008983061878020
   C    N    O    Y 
    1    3    2    2
Direct
    0.6666669847440474    0.3333329859851447    0.3787603592768340     C1
    0.0000000000000000    0.0000000000000000    0.5181880180299374     N1
    0.3333329854322146    0.6666669831836742    0.6155476431663671     N2
    0.6666669847440474    0.3333329859851447    0.3345613182712861     N3
    0.3333329854322146    0.6666669831836742    0.6654386817287139     O1
    0.6666669847440474    0.3333329859851447    0.4283795269602059     O2
    0.3333329854322146    0.6666669831836742    0.4767424128389481     Y1
    0.6666669847440474    0.3333329859851447    0.5819017958147841     Y2
