Zr-Zr-N-SCN-PO
   1.000
    3.4015356795957503    0.0000000000000000    0.0000000000000000
   -1.7007678397978752    2.9458163103683210    0.0000000000000000
    0.0000000000000000    0.0000000000000000   28.4718718168622011
   C    N    O    P    S    Zr
    1    2    1    1    1    2
Direct
    0.3333329854322145    0.6666669831836742    0.6420726809727229     C1
    0.0000000000000000    0.0000000000000000    0.4783287734667322     N1
    0.3333329854322145    0.6666669831836742    0.6838985487891304     N2
    0.6666669847440474    0.3333329859851446    0.3161014512108696     O1
    0.6666669847440474    0.3333329859851446    0.3686083996083486     P1
    0.3333329854322145    0.6666669831836742    0.5826500081034486     S1
    0.3333329854322145    0.6666669831836742    0.4369684583520449    Zr1
    0.6666669847440474    0.3333329859851446    0.5235759645672059    Zr2
