Zr-Zr-C-CN-NCS
   1.000
    3.4148686653992355    0.0000000000000000    0.0000000000000000
   -1.7074343326996178    2.9573630148164916    0.0000000000000000
    0.0000000000000000    0.0000000000000000   27.3556023614034096
   C    N    S    Zr
    3    2    1    2
Direct
    0.0000000000000000    0.0000000000000000    0.5273627011310483     C1
    0.3333329854322145    0.6666669831836742    0.6269815894615719     C2
    0.6666669847440474    0.3333329859851446    0.3857979352895544     C3
    0.3333329854322145    0.6666669831836742    0.6709997505776627     N1
    0.6666669847440474    0.3333329859851446    0.4315874424394750     N2
    0.6666669847440474    0.3333329859851446    0.3290002494223373     S1
    0.3333329854322145    0.6666669831836742    0.4822539747654524    Zr1
    0.6666669847440474    0.3333329859851446    0.5727892329589584    Zr2
