Hf-Hf-N-NO-OCl
   1.000
    3.2972785130515612    0.0000000000000000    0.0000000000000000
   -1.6486392565257806    2.8555269556678868    0.0000000000000000
    0.0000000000000000    0.0000000000000000   27.0916395310296174
   Cl   Hf   N    O 
    1    2    2    2
Direct
    0.6666669847440475    0.3333329859851446    0.3322058079833736    Cl1
    0.3333329854322145    0.6666669831836742    0.4820035973100930    Hf1
    0.6666669847440475    0.3333329859851446    0.5845443735240441    Hf2
    0.0000000000000000    0.0000000000000000    0.5292662306802859     N1
    0.3333329854322145    0.6666669831836742    0.6174275333009142     N2
    0.3333329854322145    0.6666669831836742    0.6677941920166264     O1
    0.6666669847440475    0.3333329859851446    0.4514961063802014     O2
