Zr-Zr-N-SCN-Cl
   1.000
    3.5071004414122777    0.0000000000000000    0.0000000000000000
   -1.7535502207061389    3.0372380758814823    0.0000000000000000
    0.0000000000000000    0.0000000000000000   26.5667064344117136
   C    Cl   N    S    Zr
    1    1    2    1    2
Direct
    0.3333329854322145    0.6666669831836742    0.6164123782985025     C1
    0.6666669847440474    0.3333329859851446    0.3387698818526615    Cl1
    0.0000000000000000    0.0000000000000000    0.4449344677132563     N1
    0.3333329854322145    0.6666669831836742    0.6612301181473386     N2
    0.3333329854322145    0.6666669831836742    0.5530370934264699     S1
    0.3333329854322145    0.6666669831836742    0.4052649956844787    Zr1
    0.6666669847440474    0.3333329859851446    0.4910105908599935    Zr2
