Ti-Ti-N-OH-OCN
   1.000
    3.1547274528779408    0.0000000000000000    0.0000000000000000
   -1.5773637264389704    2.7320741162091453    0.0000000000000000
    0.0000000000000000    0.0000000000000000   26.1319792415534273
   C    H    N    O    Ti
    1    1    2    2    2
Direct
    0.6666669847440473    0.3333329859851446    0.3898368548790136     C1
    0.3333329854322145    0.6666669831836742    0.6555943996125342     H1
    0.0000000000000000    0.0000000000000000    0.5300800539750923     N1
    0.6666669847440473    0.3333329859851446    0.3444056003874658     N2
    0.3333329854322145    0.6666669831836742    0.6178496862915983     O1
    0.6666669847440473    0.3333329859851446    0.4409446032675259     O2
    0.3333329854322145    0.6666669831836742    0.4903627156041933    Ti1
    0.6666669847440473    0.3333329859851446    0.5706609605214286    Ti2
