Y-Y-C-PO-PO
   1.000
    3.6009595936800527    0.0000000000000000    0.0000000000000000
   -1.8004797968400263    3.1185224861403427    0.0000000000000000
    0.0000000000000000    0.0000000000000000   27.9768270726924300
   C    O    P    Y 
    1    2    2    2
Direct
    0.0000000000000000    0.0000000000000000    0.5000000257506647     C1
    0.3333329854322144    0.6666669831836743    0.6783051924860806     O1
    0.6666669847440474    0.3333329859851447    0.3216948075139194     O2
    0.3333329854322144    0.6666669831836743    0.6248271999369641     P1
    0.6666669847440474    0.3333329859851447    0.3751728000630357     P2
    0.3333329854322144    0.6666669831836743    0.4521993396745466     Y1
    0.6666669847440474    0.3333329859851447    0.5478006599411082     Y2
