Zr-Zr-N-CN-NCO
   1.000
    3.3833855354361497    0.0000000000000000    0.0000000000000000
   -1.6916927677180749    2.9300978244817415    0.0000000000000000
    0.0000000000000000    0.0000000000000000   26.9247090609322974
   C    N    O    Zr
    2    3    1    2
Direct
    0.3333329854322145    0.6666669831836742    0.6209967932784075     C1
    0.6666669847440474    0.3333329859851445    0.3790009296889679     C2
    0.0000000000000000    0.0000000000000000    0.5216059561644826     N1
    0.3333329854322145    0.6666669831836742    0.6657345496423959     N2
    0.6666669847440474    0.3333329859851445    0.4253591326051489     N3
    0.6666669847440474    0.3333329859851445    0.3342654503576041     O1
    0.3333329854322145    0.6666669831836742    0.4788424109967286    Zr1
    0.6666669847440474    0.3333329859851445    0.5654887972730898    Zr2
