Y-Y-N-O-Br
   1.000
    3.6304252807612230    0.0000000000000000    0.0000000000000000
   -1.8152126403806115    3.1440405196920729    0.0000000000000000
    0.0000000000000000    0.0000000000000000   23.4745572468487786
   Br   N    O    Y 
    1    1    1    2
Direct
    0.6666669847440473    0.3333329859851446    0.3833938125162364    Br1
    0.0000000000000000    0.0000000000000000    0.5144415609789379     N1
    0.3333329854322146    0.6666669831836743    0.6166061874837636     O1
    0.3333329854322146    0.6666669831836743    0.4690259523501895     Y1
    0.6666669847440473    0.3333329859851446    0.5882792277890216     Y2
