Hf-Hf-C-O-O
   1.000
    3.2737940486691590    0.0000000000000000    0.0000000000000000
   -1.6368970243345795    2.8351888128681368    0.0000000000000000
    0.0000000000000000    0.0000000000000000   22.5990912133103059
   C    Hf   O 
    1    2    2
Direct
    0.0000000000000000    0.0000000000000000    0.5000000385682306     C1
    0.3333329854322145    0.6666669831836741    0.4390648100943074    Hf1
    0.6666669847440474    0.3333329859851445    0.5609351893300371    Hf2
    0.3333329854322145    0.6666669831836741    0.6017538973116219     O1
    0.6666669847440474    0.3333329859851445    0.3982461026883782     O2
