Y-Y-C-PO-OH
   1.000
    3.6068463678065288    0.0000000000000000    0.0000000000000000
   -1.8034231839032644    3.1236205821040541    0.0000000000000000
    0.0000000000000000    0.0000000000000000   26.6291243532702921
   C    H    O    P    Y 
    1    1    2    1    2
Direct
    0.0000000000000000    0.0000000000000000    0.4754410679838286     C1
    0.6666669847440475    0.3333329859851445    0.3379758147734482     H1
    0.3333329854322145    0.6666669831836742    0.6620241852265518     O1
    0.6666669847440475    0.3333329859851445    0.3749853984948599     O2
    0.3333329854322145    0.6666669831836742    0.6057629633965564     P1
    0.3333329854322145    0.6666669831836742    0.4232090167135265     Y1
    0.6666669847440475    0.3333329859851445    0.5255641211184323     Y2
