Ti-Ti-N-Br-OCN
   1.000
    3.2543216542219047    0.0000000000000000    0.0000000000000000
   -1.6271608271109523    2.8183252246413000    0.0000000000000000
    0.0000000000000000    0.0000000000000000   25.6657415834243210
   Br   C    N    O    Ti
    1    1    2    1    2
Direct
    0.3333329854322145    0.6666669831836743    0.6493380107196101    Br1
    0.6666669847440474    0.3333329859851447    0.3969530348323935     C1
    0.0000000000000000    0.0000000000000000    0.5371978095592633     N1
    0.6666669847440474    0.3333329859851447    0.3506619892803900     N2
    0.6666669847440474    0.3333329859851447    0.4489606770030084     O1
    0.3333329854322145    0.6666669831836743    0.4981683088901969    Ti1
    0.6666669847440474    0.3333329859851447    0.5772274978036254    Ti2
