Zr-Zr-C-O-OH
   1.000
    3.3195924230773262    0.0000000000000000    0.0000000000000000
   -1.6597962115386631    2.8748513685897987    0.0000000000000000
    0.0000000000000000    0.0000000000000000   23.9800801795869276
   C    H    O    Zr
    1    1    2    2
Direct
    0.0000000000000000    0.0000000000000000    0.5247949113673241     C1
    0.6666669847440473    0.3333329859851446    0.3753115057413887     H1
    0.3333329854322145    0.6666669831836742    0.6246884942586113     O1
    0.6666669847440473    0.3333329859851446    0.4164592467970301     O2
    0.3333329854322145    0.6666669831836742    0.4727515345686865    Zr1
    0.6666669847440473    0.3333329859851446    0.5843866075939705    Zr2
