Zr-Zr-C-NCS-OH
   1.000
    3.3849364044803809    0.0000000000000000    0.0000000000000000
   -1.6924682022401905    2.9314409164773449    0.0000000000000000
    0.0000000000000000    0.0000000000000000   27.0130506782234932
   C    H    N    O    S    Zr
    2    1    1    1    1    2
Direct
    0.0000000000000000    0.0000000000000000    0.4644932209047793     C1
    0.3333329854322145    0.6666669831836741    0.6092968458627632     C2
    0.6666669847440474    0.3333329859851446    0.3331722916899323     H1
    0.3333329854322145    0.6666669831836741    0.5629313274952399     N1
    0.6666669847440474    0.3333329859851446    0.3696968536207147     O1
    0.3333329854322145    0.6666669831836741    0.6668277083100678     S1
    0.3333329854322145    0.6666669831836741    0.4195869544671966    Zr1
    0.6666669847440474    0.3333329859851446    0.5110600549117077    Zr2
