Sc-Sc-C-F-H
   1.000
    3.3482518838616779    0.0000000000000000    0.0000000000000000
   -1.6741259419308390    2.8996711896897418    0.0000000000000000
    0.0000000000000000    0.0000000000000000   22.6531900937696093
   C    F    H    Sc
    1    1    1    2
Direct
    0.0000000000000000    0.0000000000000000    0.4968014545121371     C1
    0.3333329854322145    0.6666669831836742    0.6027049628442707     F1
    0.6666669847440474    0.3333329859851446    0.3972950371557294     H1
    0.3333329854322145    0.6666669831836742    0.4419838793610604    Sc1
    0.6666669847440474    0.3333329859851446    0.5528616645870442    Sc2
