Y-Y-N-O-Cl
   1.000
    3.6065197890100191    0.0000000000000000    0.0000000000000000
   -1.8032598945050096    3.1233377565425364    0.0000000000000000
    0.0000000000000000    0.0000000000000000   23.3177013991384641
   Cl   N    O    Y 
    1    1    1    2
Direct
    0.6666669847440474    0.3333329859851446    0.3859728643893059    Cl1
    0.0000000000000000    0.0000000000000000    0.5103559551580923     N1
    0.3333329854322145    0.6666669831836742    0.6140271356106941     O1
    0.3333329854322145    0.6666669831836742    0.4640801373007895     Y1
    0.6666669847440474    0.3333329859851446    0.5848305553312613     Y2
