Hf-Hf-N-NO-Cl
   1.000
    3.3266283907349417    0.0000000000000000    0.0000000000000000
   -1.6633141953674708    2.8809446953149802    0.0000000000000000
    0.0000000000000000    0.0000000000000000   24.6712076408685164
   Cl   Hf   N    O 
    1    2    2    1
Direct
    0.6666669847440474    0.3333329859851446    0.3647977079602402    Cl1
    0.3333329854322146    0.6666669831836743    0.4380383566257597    Hf1
    0.6666669847440474    0.3333329859851446    0.5377971799330459    Hf2
    0.0000000000000000    0.0000000000000000    0.4837812768473126     N1
    0.3333329854322146    0.6666669831836743    0.5808768451876116     N2
    0.3333329854322146    0.6666669831836743    0.6352022920397598     O1
