Sc-Sc-C-O-OH
   1.000
    3.2741852355097079    0.0000000000000000    0.0000000000000000
   -1.6370926177548539    2.8355275906369646    0.0000000000000000
    0.0000000000000000    0.0000000000000000   23.9015032005515522
   C    H    O    Sc
    1    1    2    2
Direct
    0.0000000000000000    0.0000000000000000    0.5222420659778554     C1
    0.6666669847440474    0.3333329859851446    0.3765453546784587     H1
    0.3333329854322145    0.6666669831836742    0.6234546453215413     O1
    0.6666669847440474    0.3333329859851446    0.4177223128494097     O2
    0.3333329854322145    0.6666669831836742    0.4701325764637089    Sc1
    0.6666669847440474    0.3333329859851446    0.5928364864757705    Sc2
