Zr-Zr-N-CN-OCN
   1.000
    3.3896452649234461    0.0000000000000000    0.0000000000000000
   -1.6948226324617230    2.9355189092265737    0.0000000000000000
    0.0000000000000000    0.0000000000000000   26.9111976769142132
   C    N    O    Zr
    2    3    1    2
Direct
    0.3333329854322145    0.6666669831836742    0.6207938358772941     C1
    0.6666669847440474    0.3333329859851446    0.3785837277404380     C2
    0.0000000000000000    0.0000000000000000    0.5212677456188832     N1
    0.3333329854322145    0.6666669831836742    0.6655667240064661     N2
    0.6666669847440474    0.3333329859851446    0.3344332759935339     N3
    0.6666669847440474    0.3333329859851446    0.4282649471118180     O1
    0.3333329854322145    0.6666669831836742    0.4793589027363353    Zr1
    0.6666669847440474    0.3333329859851446    0.5654797536702488    Zr2
