Zr-Zr-C-SCN-OCN
   1.000
    3.4824920482947115    0.0000000000000000    0.0000000000000000
   -1.7412460241473557    3.0159265822885706    0.0000000000000000
    0.0000000000000000    0.0000000000000000   28.8458695781317367
   C    N    O    S    Zr
    3    2    1    1    2
Direct
    0.0000000000000000    0.0000000000000000    0.4861269623052679     C1
    0.3333329854322145    0.6666669831836742    0.6467131642943654     C2
    0.6666669847440474    0.3333329859851446    0.3532141697494073     C3
    0.3333329854322145    0.6666669831836742    0.6879969253267731     N1
    0.6666669847440474    0.3333329859851446    0.3120030746732269     N2
    0.6666669847440474    0.3333329859851446    0.3995399862043421     O1
    0.3333329854322145    0.6666669831836742    0.5884103011178775     S1
    0.3333329854322145    0.6666669831836742    0.4467319147302959    Zr1
    0.6666669847440474    0.3333329859851446    0.5297061681357769    Zr2
