Sc-Sc-C-NO-PO
   1.000
    3.3150370898321850    0.0000000000000000    0.0000000000000000
   -1.6575185449160925    2.8709063342765107    0.0000000000000000
    0.0000000000000000    0.0000000000000000   26.6404795403408663
   C    N    O    P    Sc
    1    1    2    1    2
Direct
    0.0000000000000000    0.0000000000000000    0.5161003778009912     C1
    0.3333329854322145    0.6666669831836742    0.6139838814360576     N1
    0.3333329854322145    0.6666669831836742    0.6621682433917313     O1
    0.6666669847440475    0.3333329859851446    0.3378317566082688     O2
    0.6666669847440475    0.3333329859851446    0.3938937149175477     P1
    0.3333329854322145    0.6666669831836742    0.4725062039508456    Sc1
    0.6666669847440475    0.3333329859851446    0.5673213913169737    Sc2
