Hf-Hf-C-OCl-NCO
   1.000
    3.2717789881413872    0.0000000000000000    0.0000000000000000
   -1.6358894940706932    2.8334437192987036    0.0000000000000000
    0.0000000000000000    0.0000000000000000   28.8668640367921618
   C    Cl   Hf   N    O 
    2    1    2    1    2
Direct
    0.0000000000000000    0.0000000000000000    0.4885378422196771     C1
    0.6666669847440474    0.3333329859851445    0.3534848125214916     C2
    0.3333329854322145    0.6666669831836741    0.6882238407147696    Cl1
    0.3333329854322145    0.6666669831836741    0.4461003030263246    Hf1
    0.6666669847440474    0.3333329859851445    0.5378381953136351    Hf2
    0.6666669847440474    0.3333329859851445    0.3968289116967779     N1
    0.3333329854322145    0.6666669831836741    0.5688168472996225     O1
    0.6666669847440474    0.3333329859851445    0.3117761592852303     O2
