Hf-Hf-C-Br-OH
   1.000
    3.3798395584107932    0.0000000000000000    0.0000000000000000
   -1.6899197792053966    2.9270269182908319    0.0000000000000000
    0.0000000000000000    0.0000000000000000   24.6374196728113901
   Br   C    H    Hf   O 
    1    1    1    2    1
Direct
    0.3333329854322144    0.6666669831836742    0.6347020053430374    Br1
    0.0000000000000000    0.0000000000000000    0.5060216229457970     C1
    0.6666669847440472    0.3333329859851445    0.3652979946569626     H1
    0.3333329854322144    0.6666669831836742    0.4586556710163964    Hf1
    0.6666669847440472    0.3333329859851445    0.5544566199689460    Hf2
    0.6666669847440472    0.3333329859851445    0.4054694514499498     O1
