Hf-Hf-C-NCS-O
   1.000
    3.3019872992110044    0.0000000000000000    0.0000000000000000
   -1.6509936496055022    2.8596048840866950    0.0000000000000000
    0.0000000000000000    0.0000000000000000   25.7134175687654114
   C    Hf   N    O    S 
    2    2    1    1    1
Direct
    0.0000000000000000    0.0000000000000000    0.4402421499209094     C1
    0.3333329854322145    0.6666669831836742    0.5897905360484784     C2
    0.3333329854322145    0.6666669831836742    0.3863921917861544    Hf1
    0.6666669847440475    0.3333329859851446    0.4892375201396066    Hf2
    0.3333329854322145    0.6666669831836742    0.5403876113313119     N1
    0.6666669847440475    0.3333329859851446    0.3500118168240878     O1
    0.3333329854322145    0.6666669831836742    0.6499881831759122     S1
