Sc-Sc-C-NO-H
   1.000
    3.3406883957221547    0.0000000000000000    0.0000000000000000
   -1.6703441978610774    2.8931210168198942    0.0000000000000000
    0.0000000000000000    0.0000000000000000   24.0768580938415369
   C    H    N    O    Sc
    1    1    1    1    2
Direct
    0.0000000000000000    0.0000000000000000    0.4669820200875122     C1
    0.6666669847440474    0.3333329859851446    0.3738029258187160     H1
    0.3333329854322145    0.6666669831836742    0.5727388363755354     N1
    0.3333329854322145    0.6666669831836742    0.6261970741812840     O1
    0.3333329854322145    0.6666669831836742    0.4153838102016142    Sc1
    0.6666669847440474    0.3333329859851446    0.5201428385874903    Sc2
