Ti-Ti-N-NCO-Br
   1.000
    3.2495574758191128    0.0000000000000000    0.0000000000000000
   -1.6247787379095564    2.8141993251129791    0.0000000000000000
    0.0000000000000000    0.0000000000000000   25.6699048681542266
   Br   C    N    O    Ti
    1    1    2    1    2
Direct
    0.6666669847440474    0.3333329859851446    0.3506051170125406    Br1
    0.3333329854322145    0.6666669831836742    0.6024662266429573     C1
    0.0000000000000000    0.0000000000000000    0.4626448225703782     N1
    0.3333329854322145    0.6666669831836742    0.5538964494065051     N2
    0.3333329854322145    0.6666669831836742    0.6493948829874594     O1
    0.3333329854322145    0.6666669831836742    0.4229029976641974    Ti1
    0.6666669847440474    0.3333329859851446    0.5023834106883138    Ti2
