Ti-Ti-N-NCS-Cl
   1.000
    3.2376165704736612    0.0000000000000000    0.0000000000000000
   -1.6188082852368306    2.8038581977302530    0.0000000000000000
    0.0000000000000000    0.0000000000000000   25.8344218394011413
   C    Cl   N    S    Ti
    1    1    2    1    2
Direct
    0.3333329854322145    0.6666669831836742    0.5915973662920935     C1
    0.6666669847440474    0.3333329859851446    0.3483724178519734    Cl1
    0.0000000000000000    0.0000000000000000    0.4529457265155487     N1
    0.3333329854322145    0.6666669831836742    0.5431278132841604     N2
    0.3333329854322145    0.6666669831836742    0.6516275821480266     S1
    0.3333329854322145    0.6666669831836742    0.4136699705509841    Ti1
    0.6666669847440474    0.3333329859851446    0.4936513570639403    Ti2
