Ti-Ti-C-NCS-OCN
   1.000
    3.2025127159173330    0.0000000000000000    0.0000000000000000
   -1.6012563579586665    2.7734573679337928    0.0000000000000000
    0.0000000000000000    0.0000000000000000   28.1213309088737553
   C    N    O    S    Ti
    3    2    1    1    2
Direct
    0.0000000000000000    0.0000000000000000    0.4941324784870886     C1
    0.3333329854322145    0.6666669831836742    0.6248427716059088     C2
    0.6666669847440474    0.3333329859851446    0.3622933094894173     C3
    0.3333329854322145    0.6666669831836742    0.5802759611594551     N1
    0.6666669847440474    0.3333329859851446    0.3200417515502451     N2
    0.6666669847440474    0.3333329859851446    0.4097156830600605     O1
    0.3333329854322145    0.6666669831836742    0.6799582484497549     S1
    0.3333329854322145    0.6666669831836742    0.4556270305140445    Ti1
    0.6666669847440474    0.3333329859851446    0.5348028321562557    Ti2
