 Y-Y-C-Br-H                             
   1.0000000000000000     
     3.6815720875231164    0.0000000000000000   -0.0000000000000000
    -1.8407860437615584    3.1883349536807630   -0.0000000000000000
     0.0000000000000015    0.0000000000000027   25.7171010326832921
   C    Br   H    Y 
     1     1     1     2
Direct
  0.0000000000000000 -0.0000000000000000  0.5071806583007358
  0.3333329854322145  0.6666669831836742  0.3784687495188498
  0.6666669847440474  0.3333329859851446  0.5997765928268066
  0.3333329854322145  0.6666669831836742  0.5598045515351810
  0.6666669847440474  0.3333329859851446  0.4549522628526276

  0.00000000E+00  0.00000000E+00  0.00000000E+00
  0.00000000E+00  0.00000000E+00  0.00000000E+00
  0.00000000E+00  0.00000000E+00  0.00000000E+00
  0.00000000E+00  0.00000000E+00  0.00000000E+00
  0.00000000E+00  0.00000000E+00  0.00000000E+00
