Zr-Zr-N-CN-OCl
   1.000
    3.2931197001744312    0.0000000000000000    0.0000000000000000
   -1.6465598500872156    2.8519253180540547    0.0000000000000000
    0.0000000000000000    0.0000000000000000   27.7554363390996599
   C    Cl   N    O    Zr
    1    1    2    1    2
Direct
    0.3333329854322145    0.6666669831836742    0.6322230023969907     C1
    0.6666669847440473    0.3333329859851446    0.3242608003002825    Cl1
    0.0000000000000000    0.0000000000000000    0.5308448133213288     N1
    0.3333329854322145    0.6666669831836742    0.6757391996997175     N2
    0.6666669847440473    0.3333329859851446    0.4496957785593018     O1
    0.3333329854322145    0.6666669831836742    0.4829406047042624    Zr1
    0.6666669847440473    0.3333329859851446    0.5786835136932569    Zr2
