Hf-Hf-C-SCN-SCN
   1.000
    3.5325800851874343    0.0000000000000000    0.0000000000000000
   -1.7662900425937171    3.0593040946610062    0.0000000000000000
    0.0000000000000000    0.0000000000000000   29.3223370405856372
   C    Hf   N    S 
    3    2    2    2
Direct
    0.0000000000000000    0.0000000000000000    0.5000000257199284     C1
    0.3333329854322145    0.6666669831836742    0.6524705804487465     C2
    0.6666669847440473    0.3333329859851446    0.3475294199322894     C3
    0.3333329854322145    0.6666669831836742    0.4609937497181928    Hf1
    0.6666669847440473    0.3333329859851446    0.5390062502818000    Hf2
    0.3333329854322145    0.6666669831836742    0.6930667570070244     N1
    0.6666669847440473    0.3333329859851446    0.3069332429929756     N2
    0.3333329854322145    0.6666669831836742    0.5949630343742266     S1
    0.6666669847440473    0.3333329859851446    0.4050369660068093     S2
