Hf-Hf-C-PO-OH
   1.000
    3.2643633018635079    0.0000000000000000    0.0000000000000000
   -1.6321816509317539    2.8270215465817108    0.0000000000000000
    0.0000000000000000    0.0000000000000000   26.3078685274085444
   C    H    Hf   O    P 
    1    1    2    2    1
Direct
    0.0000000000000000    0.0000000000000000    0.4765769551721835     C1
    0.6666669847440474    0.3333329859851446    0.3421029716118376     H1
    0.3333329854322146    0.6666669831836743    0.4302042731225639    Hf1
    0.6666669847440474    0.3333329859851446    0.5261807985409970    Hf2
    0.3333329854322146    0.6666669831836743    0.6578970283881624     O1
    0.6666669847440474    0.3333329859851446    0.3798760415693295     O2
    0.3333329854322146    0.6666669831836743    0.6011540716084256     P1
