Y-Y-N-Cl-OCN
   1.000
    3.5862258818393111    0.0000000000000000    0.0000000000000000
   -1.7931129409196556    3.1057627173850380    0.0000000000000000
    0.0000000000000000    0.0000000000000000   26.2396260537756483
   C    Cl   N    O    Y 
    1    1    2    1    2
Direct
    0.6666669847440474    0.3333329859851446    0.3882972886893507     C1
    0.3333329854322145    0.6666669831836742    0.6570073071332896    Cl1
    0.0000000000000000    0.0000000000000000    0.5377853026882551     N1
    0.6666669847440474    0.3333329859851446    0.3429926928667103     N2
    0.6666669847440474    0.3333329859851446    0.4391348750285994     O1
    0.3333329854322145    0.6666669831836742    0.4890573335045346     Y1
    0.6666669847440474    0.3333329859851446    0.5890389203058081     Y2
