Sc-Sc-C-SCN-Cl
   1.000
    3.5177009812184434    0.0000000000000000    0.0000000000000000
   -1.7588504906092217    3.0464184126424101    0.0000000000000000
    0.0000000000000000    0.0000000000000000   26.5670017639715788
   C    Cl   N    S    Sc
    2    1    1    1    2
Direct
    0.0000000000000000    0.0000000000000000    0.4466783113424355     C1
    0.3333329854322145    0.6666669831836741    0.6164269301561043     C2
    0.6666669847440475    0.3333329859851446    0.3387661159493431    Cl1
    0.3333329854322145    0.6666669831836741    0.6612338840506569     N1
    0.3333329854322145    0.6666669831836741    0.5534652665902806     S1
    0.3333329854322145    0.6666669831836741    0.4006081639612067    Sc1
    0.6666669847440475    0.3333329859851446    0.4921949758479923    Sc2
