Hf-Hf-C-NO-F
   1.000
    3.3704828385013936    0.0000000000000000    0.0000000000000000
   -1.6852414192506968    2.9189237611602024    0.0000000000000000
    0.0000000000000000    0.0000000000000000   24.1153595099615856
   C    F    Hf   N    O 
    1    1    2    1    1
Direct
    0.0000000000000000    0.0000000000000000    0.4714200333411604     C1
    0.6666669847440474    0.3333329859851447    0.3732061301546127     F1
    0.3333329854322146    0.6666669831836742    0.4264391030830130    Hf1
    0.6666669847440474    0.3333329859851447    0.5323577986478512    Hf2
    0.3333329854322146    0.6666669831836742    0.5709239452245332     N1
    0.3333329854322146    0.6666669831836742    0.6267938698453873     O1
