Sc-Sc-C-NCS-Cl
   1.000
    3.4425332089496030    0.0000000000000000    0.0000000000000000
   -1.7212666044748015    2.9813212123154935    0.0000000000000000
    0.0000000000000000    0.0000000000000000   26.2448985965516641
   C    Cl   N    S    Sc
    2    1    1    1    2
Direct
    0.0000000000000000    0.0000000000000000    0.4536494024883677     C1
    0.3333329854322145    0.6666669831836742    0.5977732798316676     C2
    0.6666669847440475    0.3333329859851446    0.3429237863842429    Cl1
    0.3333329854322145    0.6666669831836742    0.5502589137145241     N1
    0.3333329854322145    0.6666669831836742    0.6570762136157571     S1
    0.3333329854322145    0.6666669831836742    0.4068606219998321    Sc1
    0.6666669847440475    0.3333329859851446    0.5011219243536946    Sc2
