Ti-Ti-N-O-O
   1.000
    3.0586504396210956    0.0000000000000000    0.0000000000000000
   -1.5293252198105478    2.6488689819811935    0.0000000000000000
    0.0000000000000000    0.0000000000000000   22.3536527673243022
   N    O    Ti
    1    2    2
Direct
    0.0000000000000000    0.0000000000000000    0.5000000446699232     N1
    0.3333329854322145    0.6666669831836742    0.5973812381502208     O1
    0.6666669847440475    0.3333329859851446    0.4026187618497791     O2
    0.3333329854322145    0.6666669831836742    0.4433246225760164    Ti1
    0.6666669847440475    0.3333329859851446    0.5566753767572561    Ti2
