Sc-Sc-C-OCl-OCl
   1.000
    3.4067187905532839    0.0000000000000000    0.0000000000000000
   -1.7033593952766419    2.9503050161380533    0.0000000000000000
    0.0000000000000000    0.0000000000000000   26.2044772185971624
   C    Cl   O    Sc
    1    2    2    2
Direct
    0.0000000000000000    0.0000000000000000    0.5000000307167587     C1
    0.3333329854322145    0.6666669831836742    0.6565472409572533    Cl1
    0.6666669847440473    0.3333329859851446    0.3434527590427469    Cl2
    0.3333329854322145    0.6666669831836742    0.5899558678187646     O1
    0.6666669847440473    0.3333329859851446    0.4100441321812436     O2
    0.3333329854322145    0.6666669831836742    0.4520335624197993    Sc1
    0.6666669847440473    0.3333329859851446    0.5479664371217418    Sc2
