Y-Y-N-OCl-Cl
   1.000
    3.7534150360190841    0.0000000000000000    0.0000000000000000
   -1.8767075180095421    3.2505527721442213    0.0000000000000000
    0.0000000000000000    0.0000000000000000   24.8976643529093096
   Cl   N    O    Y 
    2    1    1    2
Direct
    0.3333329854322144    0.6666669831836741    0.6385203096792353    Cl1
    0.6666669847440475    0.3333329859851445    0.3614796903207648    Cl2
    0.0000000000000000    0.0000000000000000    0.4619075451088711     N1
    0.3333329854322144    0.6666669831836741    0.5308074947784680     O1
    0.3333329854322144    0.6666669831836741    0.4335481627207491     Y1
    0.6666669847440475    0.3333329859851445    0.5588421996362081     Y2
