Zr-Zr-C-OCl-F
   1.000
    3.3416508380909895    0.0000000000000000    0.0000000000000000
   -1.6708254190454948    2.8939545163637304    0.0000000000000000
    0.0000000000000000    0.0000000000000000   26.3929258877134387
   C    Cl   F    O    Zr
    1    1    1    1    2
Direct
    0.0000000000000000    0.0000000000000000    0.4371097858934171     C1
    0.3333329854322145    0.6666669831836742    0.6589995350159445    Cl1
    0.6666669847440474    0.3333329859851446    0.3410004649840556     F1
    0.3333329854322145    0.6666669831836742    0.5264081115570602     O1
    0.3333329854322145    0.6666669831836742    0.3907200951212962    Zr1
    0.6666669847440474    0.3333329859851446    0.4925947676110635    Zr2
