Ti-Ti-N-NCO-O
   1.000
    3.0953894942701665    0.0000000000000000    0.0000000000000000
   -1.5476947471350833    2.6806859366446760    0.0000000000000000
    0.0000000000000000    0.0000000000000000   25.0812120116716883
   C    N    O    Ti
    1    2    2    2
Direct
    0.3333329854322146    0.6666669831836742    0.5931782137128824     C1
    0.0000000000000000    0.0000000000000000    0.4451039233431408     N1
    0.3333329854322146    0.6666669831836742    0.5434312167842458     N2
    0.3333329854322146    0.6666669831836742    0.6411656663237886     O1
    0.6666669847440474    0.3333329859851446    0.3588343336762114     O2
    0.3333329854322146    0.6666669831836742    0.3951524081357739    Ti1
    0.6666669847440474    0.3333329859851446    0.4900432123971639    Ti2
