Sc-Sc-N-NCO-SCN
   1.000
    3.3988576199145735    0.0000000000000000    0.0000000000000000
   -1.6994288099572867    2.9434970427027496    0.0000000000000000
    0.0000000000000000    0.0000000000000000   28.6391140282143049
   C    N    O    S    Sc
    2    3    1    1    2
Direct
    0.3333329854322145    0.6666669831836742    0.6437077445822385     C1
    0.6666669847440473    0.3333329859851446    0.3558179609915378     C2
    0.0000000000000000    0.0000000000000000    0.5137203759935471     N1
    0.3333329854322145    0.6666669831836742    0.6001506126045301     N2
    0.6666669847440473    0.3333329859851446    0.3142555314781560     N3
    0.3333329854322145    0.6666669831836742    0.6857444685218440     O1
    0.6666669847440473    0.3333329859851446    0.4142844026884550     S1
    0.3333329854322145    0.6666669831836742    0.4711452750892514    Sc1
    0.6666669847440473    0.3333329859851446    0.5541449582491672    Sc2
