Ti-Ti-C-H-H
   1.000
    3.0633174058808188    0.0000000000000000    0.0000000000000000
   -1.5316587029404094    2.6529106933486810    0.0000000000000000
    0.0000000000000000    0.0000000000000000   22.2497953254499734
   C    H    Ti
    1    2    2
Direct
    0.0000000000000000    0.0000000000000000    0.5000000447417928     C1
    0.3333329854322146    0.6666669831836743    0.5955018970576536     H1
    0.6666669847440474    0.3333329859851446    0.4044981029423464     H2
    0.3333329854322146    0.6666669831836743    0.4485072348405246    Ti1
    0.6666669847440474    0.3333329859851446    0.5514927644916754    Ti2
