Sc-Sc-N-NCS-O
   1.000
    3.3280403161059988    0.0000000000000000    0.0000000000000000
   -1.6640201580529994    2.8821674585682091    0.0000000000000000
    0.0000000000000000    0.0000000000000000   25.4457970286882471
   C    N    O    S    Sc
    1    2    1    1    2
Direct
    0.3333329854322146    0.6666669831836742    0.5852563890851186     C1
    0.0000000000000000    0.0000000000000000    0.4431267240583456     N1
    0.3333329854322146    0.6666669831836742    0.5363521663788409     N2
    0.6666669847440475    0.3333329859851446    0.3536929886634389     O1
    0.3333329854322146    0.6666669831836742    0.6463070113365611     S1
    0.3333329854322146    0.6666669831836742    0.3805180804621398    Sc1
    0.6666669847440475    0.3333329859851446    0.4828542328413515    Sc2
