Ti-Ti-C-NCS-PO
   1.000
    3.1806475437602293    0.0000000000000000    0.0000000000000000
   -1.5903237718801146    2.7545215733824899    0.0000000000000000
    0.0000000000000000    0.0000000000000000   27.6990931048675932
   C    N    O    P    S    Ti
    2    1    1    1    1    2
Direct
    0.0000000000000000    0.0000000000000000    0.4863671024002784     C1
    0.3333329854322145    0.6666669831836742    0.6191569617822791     C2
    0.3333329854322145    0.6666669831836742    0.5738173162684540     N1
    0.6666669847440474    0.3333329859851446    0.3249203851521919     O1
    0.6666669847440474    0.3333329859851446    0.3787521835782085     P1
    0.3333329854322145    0.6666669831836742    0.6750796148478081     S1
    0.3333329854322145    0.6666669831836742    0.4459876511629119    Ti1
    0.6666669847440474    0.3333329859851446    0.5284080302669711    Ti2
