Ti-Ti-N-PO-OCN
   1.000
    3.1402086701723873    0.0000000000000000    0.0000000000000000
   -1.5701043350861936    2.7195004815534767    0.0000000000000000
    0.0000000000000000    0.0000000000000000   27.3353390154374409
   C    N    O    P    Ti
    1    2    2    1    2
Direct
    0.6666669847440474    0.3333329859851447    0.3726887352794450     C1
    0.0000000000000000    0.0000000000000000    0.5068821603269109     N1
    0.6666669847440474    0.3333329859851447    0.3292441332049079     N2
    0.3333329854322145    0.6666669831836742    0.6707558667950921     O1
    0.6666669847440474    0.3333329859851447    0.4216135285848941     O2
    0.3333329854322145    0.6666669831836742    0.6162088672741809     P1
    0.3333329854322145    0.6666669831836742    0.4688067095361812    Ti1
    0.6666669847440474    0.3333329859851447    0.5484246128378374    Ti2
