Y-Y-C-NCO-O
   1.000
    3.5980368642029910    0.0000000000000000    0.0000000000000000
   -1.7990184321014955    3.1159913281591236    0.0000000000000000
    0.0000000000000000    0.0000000000000000   25.7034440497368983
   C    N    O    Y 
    2    1    2    2
Direct
    0.0000000000000000    0.0000000000000000    0.4487368876660731     C1
    0.3333329854322146    0.6666669831836743    0.6029254437077249     C2
    0.3333329854322146    0.6666669831836743    0.5544578774495399     N1
    0.3333329854322146    0.6666669831836743    0.6498523706556700     O1
    0.6666669847440475    0.3333329859851446    0.3501476293443300     O2
    0.3333329854322146    0.6666669831836743    0.3772457624663152     Y1
    0.6666669847440475    0.3333329859851446    0.4980470234946134     Y2
