Y-Y-C-NCO-Br
   1.000
    3.7067323117857214    0.0000000000000000    0.0000000000000000
   -1.8533661558928607    3.2101243470752423    0.0000000000000000
    0.0000000000000000    0.0000000000000000   26.5076611470144883
   Br   C    N    O    Y 
    1    2    1    1    2
Direct
    0.6666669847440474    0.3333329859851447    0.3395244850190660    Br1
    0.0000000000000000    0.0000000000000000    0.4644000035492521     C1
    0.3333329854322146    0.6666669831836743    0.6149390219231023     C2
    0.3333329854322146    0.6666669831836743    0.5679088025238714     N1
    0.3333329854322146    0.6666669831836743    0.6604755149809340     O1
    0.3333329854322146    0.6666669831836743    0.4134971258568846     Y1
    0.6666669847440474    0.3333329859851447    0.5155639185415610     Y2
