Sc-Sc-N-PO-F
   1.000
    3.2977907945861498    0.0000000000000000    0.0000000000000000
   -1.6488953972930749    2.8559706044735282    0.0000000000000000
    0.0000000000000000    0.0000000000000000   24.9875672904286503
   F    N    O    P    Sc
    1    1    1    1    2
Direct
    0.6666669847440474    0.3333329859851446    0.3601791200957526     F1
    0.0000000000000000    0.0000000000000000    0.4521526957917940     N1
    0.3333329854322145    0.6666669831836742    0.6398208799042475     O1
    0.3333329854322145    0.6666669831836742    0.5800399276932000     P1
    0.3333329854322145    0.6666669831836742    0.4059043527931135    Sc1
    0.6666669847440474    0.3333329859851446    0.5020332161711265    Sc2
