Ti-Ti-C-CN-H
   1.000
    3.1234510555658530    0.0000000000000000    0.0000000000000000
   -1.5617255277829265    2.7049879616058727    0.0000000000000000
    0.0000000000000000    0.0000000000000000   23.8515205639554964
   C    H    N    Ti
    2    1    1    2
Direct
    0.0000000000000000    0.0000000000000000    0.4647925359791494     C1
    0.3333329854322145    0.6666669831836742    0.5722413531052202     C2
    0.6666669847440475    0.3333329859851446    0.3773344334952310     H1
    0.3333329854322145    0.6666669831836742    0.6226655665047690     N1
    0.3333329854322145    0.6666669831836742    0.4174460685264129    Ti1
    0.6666669847440475    0.3333329859851446    0.5129180686051500    Ti2
