Sc-Sc-N-O-H
   1.000
    3.2583381646920540    0.0000000000000000    0.0000000000000000
   -1.6291690823460270    2.8218036247352791    0.0000000000000000
    0.0000000000000000    0.0000000000000000   22.4259534643774607
   H    N    O    Sc
    1    1    1    2
Direct
    0.6666669847440473    0.3333329859851446    0.4013207293190929     H1
    0.0000000000000000    0.0000000000000000    0.4951979715307568     N1
    0.3333329854322145    0.6666669831836742    0.5986792706809071     O1
    0.3333329854322145    0.6666669831836742    0.4494700264287607    Sc1
    0.6666669847440473    0.3333329859851446    0.5664154137646730    Sc2
