Sc-Sc-N-H-OH
   1.000
    3.2242805399286083    0.0000000000000000    0.0000000000000000
   -1.6121402699643042    2.7923088564965139    0.0000000000000000
    0.0000000000000000    0.0000000000000000   23.6858183607371089
   H    N    O    Sc
    2    1    1    2
Direct
    0.3333329854322146    0.6666669831836743    0.6200257950589165     H1
    0.6666669847440473    0.3333329859851446    0.3799742049410835     H2
    0.0000000000000000    0.0000000000000000    0.5248652471178460     N1
    0.6666669847440473    0.3333329859851446    0.4215643183523087     O1
    0.3333329854322146    0.6666669831836743    0.4737413088598809    Sc1
    0.6666669847440473    0.3333329859851446    0.5776828283897804    Sc2
