Sc-Sc-C-O-O
   1.000
    3.4372407042652435    0.0000000000000000    0.0000000000000000
   -1.7186203521326218    2.9767377688089343    0.0000000000000000
    0.0000000000000000    0.0000000000000000   21.8608592660450043
   C    O    Sc
    1    2    2
Direct
    0.0000000000000000    0.0000000000000000    0.4871381689512178     C1
    0.3333329854322145    0.6666669831836742    0.5883052953010364     O1
    0.0000000000000000    0.0000000000000000    0.4116947046989636     O2
    0.3333329854322145    0.6666669831836742    0.4431709247234498    Sc1
    0.6666669847440474    0.3333329859851446    0.5591111461620365    Sc2
