Hf-Hf-C-OCl-Br
   1.000
    3.3353476391199219    0.0000000000000000    0.0000000000000000
   -1.6676738195599610    2.8884957859206133    0.0000000000000000
    0.0000000000000000    0.0000000000000000   26.7906608905942321
   Br   C    Cl   Hf   O 
    1    1    1    2    1
Direct
    0.6666669847440474    0.3333329859851446    0.3359379612452843    Br1
    0.0000000000000000    0.0000000000000000    0.4537264180681170     C1
    0.3333329854322145    0.6666669831836742    0.6640620387547158    Cl1
    0.3333329854322145    0.6666669831836742    0.4092791643186007    Hf1
    0.6666669847440474    0.3333329859851446    0.5069690772547020    Hf2
    0.3333329854322145    0.6666669831836742    0.5386927264996071     O1
