Hf-Hf-C-Cl-H
   1.000
    3.3283345811168075    0.0000000000000000    0.0000000000000000
   -1.6641672905584037    2.8824222995365751    0.0000000000000000
    0.0000000000000000    0.0000000000000000   23.2056028738853684
   C    Cl   H    Hf
    1    1    1    2
Direct
    0.0000000000000000    0.0000000000000000    0.4837251683152917     C1
    0.3333329854322146    0.6666669831836743    0.6121626294773738    Cl1
    0.6666669847440473    0.3333329859851447    0.3878373705226262     H1
    0.3333329854322146    0.6666669831836743    0.4303656290483898    Hf1
    0.6666669847440473    0.3333329859851447    0.5344316847350056    Hf2
