Ti-Ti-C-NO-OCl
   1.000
    3.0784522252960893    0.0000000000000000    0.0000000000000000
   -1.5392261126480447    2.6660178314455365    0.0000000000000000
    0.0000000000000000    0.0000000000000000   29.6421574949460798
   C    Cl   N    O    Ti
    1    1    1    2    2
Direct
    0.0000000000000000    0.0000000000000000    0.5708421785853892     C1
    0.6666669847440474    0.3333329859851445    0.3036216240850376    Cl1
    0.3333329854322146    0.6666669831836742    0.6528281024525171     N1
    0.3333329854322146    0.6666669831836742    0.6963783759149624     O1
    0.6666669847440474    0.3333329859851445    0.4961478572484594     O2
    0.3333329854322146    0.6666669831836742    0.5258936426460070    Ti1
    0.6666669847440474    0.3333329859851445    0.6113116477481859    Ti2
