Sc-Sc-C-SCN-OH
   1.000
    3.4490139498147472    0.0000000000000000    0.0000000000000000
   -1.7245069749073736    2.9869336985389396    0.0000000000000000
    0.0000000000000000    0.0000000000000000   27.1533415568178746
   C    H    N    O    S    Sc
    2    1    1    1    1    2
Direct
    0.0000000000000000    0.0000000000000000    0.4576149924880359     C1
    0.3333329854322145    0.6666669831836742    0.6247135157419694     C2
    0.6666669847440475    0.3333329859851446    0.3314509185238828     H1
    0.3333329854322145    0.6666669831836742    0.6685490814761172     N1
    0.6666669847440475    0.3333329859851446    0.3677426968404325     O1
    0.3333329854322145    0.6666669831836742    0.5632113207068671     S1
    0.3333329854322145    0.6666669831836742    0.4113596158807358    Sc1
    0.6666669847440475    0.3333329859851446    0.5021383480096728    Sc2
