Sc-Sc-N-Cl-Br
   1.000
    3.4168613375998267    0.0000000000000000    0.0000000000000000
   -1.7084306687999133    2.9590887195669420    0.0000000000000000
    0.0000000000000000    0.0000000000000000   23.8919145935785728
   Br   Cl   N    Sc
    1    1    1    2
Direct
    0.6666669847440474    0.3333329859851446    0.3766964746483285    Br1
    0.3333329854322145    0.6666669831836742    0.6233035253516714    Cl1
    0.0000000000000000    0.0000000000000000    0.5039269470147558     N1
    0.3333329854322145    0.6666669831836742    0.4545502945458759    Sc1
    0.6666669847440474    0.3333329859851446    0.5532177560759195    Sc2
