Ti-Ti-C-OCl-PO
   1.000
    3.0865319232631423    0.0000000000000000    0.0000000000000000
   -1.5432659616315711    2.6730150551388463    0.0000000000000000
    0.0000000000000000    0.0000000000000000   28.8439036828775386
   C    Cl   O    P    Ti
    1    1    2    1    2
Direct
    0.0000000000000000    0.0000000000000000    0.4677326752823496     C1
    0.3333329854322145    0.6666669831836742    0.6879756603353718    Cl1
    0.3333329854322145    0.6666669831836742    0.5452303133042463     O1
    0.6666669847440474    0.3333329859851446    0.3120243396646282     O2
    0.6666669847440474    0.3333329859851446    0.3637007862525906     P1
    0.3333329854322145    0.6666669831836742    0.4287168063960537    Ti1
    0.6666669847440474    0.3333329859851446    0.5148367417081885    Ti2
