Ti-Ti-N-OCl-NCS
   1.000
    3.1039439928546257    0.0000000000000000    0.0000000000000000
   -1.5519719964273129    2.6880943497365197    0.0000000000000000
    0.0000000000000000    0.0000000000000000   30.9507911397713684
   C    Cl   N    O    S    Ti
    1    1    2    1    1    2
Direct
    0.6666669847440474    0.3333329859851446    0.3407472904491982     C1
    0.3333329854322146    0.6666669831836742    0.7092158336322745    Cl1
    0.0000000000000000    0.0000000000000000    0.4597014792132863     N1
    0.6666669847440474    0.3333329859851446    0.3816074068258718     N2
    0.3333329854322146    0.6666669831836742    0.5284493706881905     O1
    0.6666669847440474    0.3333329859851446    0.2907841663677255     S1
    0.3333329854322146    0.6666669831836742    0.4215860061192673    Ti1
    0.6666669847440474    0.3333329859851446    0.5001181442186966    Ti2
