Y-Y-C-F-OCN
   1.000
    3.6280898521588654    0.0000000000000000    0.0000000000000000
   -1.8140449260794327    3.1420179791809359    0.0000000000000000
    0.0000000000000000    0.0000000000000000   25.6860238047400813
   C    F    N    O    Y 
    2    1    1    1    2
Direct
    0.0000000000000000    0.0000000000000000    0.5515411279863123     C1
    0.6666669847440474    0.3333329859851446    0.3966807971433406     C2
    0.3333329854322146    0.6666669831836742    0.6496149007562958     F1
    0.6666669847440474    0.3333329859851446    0.3503850992437042     N1
    0.6666669847440474    0.3333329859851446    0.4485743100504651     O1
    0.3333329854322146    0.6666669831836742    0.4986645621318643     Y1
    0.6666669847440474    0.3333329859851446    0.6052468678932916     Y2
