Zr-Zr-C-O-F
   1.000
    3.3449277470992032    0.0000000000000000    0.0000000000000000
   -1.6724638735496016    2.8967924028081318    0.0000000000000000
    0.0000000000000000    0.0000000000000000   22.9113905495529124
   C    F    O    Zr
    1    1    1    2
Direct
    0.0000000000000000    0.0000000000000000    0.5030395409877404     C1
    0.6666669847440474    0.3333329859851446    0.3928177113708894     F1
    0.3333329854322145    0.6666669831836742    0.6071822886291105     O1
    0.3333329854322145    0.6666669831836742    0.4497201381619861    Zr1
    0.6666669847440474    0.3333329859851446    0.5655839361687269    Zr2
