Y-Y-N-NCO-NCS
   1.000
    3.5656434783497972    0.0000000000000000    0.0000000000000000
   -1.7828217391748986    3.0879378330680751    0.0000000000000000
    0.0000000000000000    0.0000000000000000   28.7227602020369481
   C    N    O    S    Y 
    2    3    1    1    2
Direct
    0.3333329854322145    0.6666669831836742    0.6446688009816541     C1
    0.6666669847440473    0.3333329859851446    0.3675534017976342     C2
    0.0000000000000000    0.0000000000000000    0.5061108070321028     N1
    0.3333329854322145    0.6666669831836742    0.6013115707052670     N2
    0.6666669847440473    0.3333329859851446    0.4110604144364833     N3
    0.3333329854322145    0.6666669831836742    0.6866596407624590     O1
    0.6666669847440473    0.3333329859851446    0.3133403592375409     S1
    0.3333329854322145    0.6666669831836742    0.4590804359988559     Y1
    0.6666669847440473    0.3333329859851446    0.5514625412069308     Y2
