Y-Y-C-O-H
   1.000
    3.5806393998020445    0.0000000000000000    0.0000000000000000
   -1.7903196999010222    3.1009246820253549    0.0000000000000000
    0.0000000000000000    0.0000000000000000   22.9129681632822546
   C    H    O    Y 
    1    1    1    2
Direct
    0.0000000000000000    0.0000000000000000    0.4957887407527909     C1
    0.6666669847440475    0.3333329859851445    0.3927906649136094     H1
    0.3333329854322145    0.6666669831836742    0.6072093350863905     O1
    0.3333329854322145    0.6666669831836742    0.4404473703490359     Y1
    0.6666669847440475    0.3333329859851445    0.5758795455002963     Y2
