Sc-Sc-N-Br-Br
   1.000
    3.4546233021283919    0.0000000000000000    0.0000000000000000
   -1.7273116510641959    2.9917915401420898    0.0000000000000000
    0.0000000000000000    0.0000000000000000   24.0370118069854399
   Br   N    Sc
    2    1    2
Direct
    0.3333329854322145    0.6666669831836742    0.6255774190124375    Br1
    0.6666669847440474    0.3333329859851446    0.3744225809875624    Br2
    0.0000000000000000    0.0000000000000000    0.5000000325642835     N1
    0.3333329854322145    0.6666669831836742    0.4513333248840884    Sc1
    0.6666669847440474    0.3333329859851446    0.5486666746298687    Sc2
