Sc-Sc-N-CN-NCO
   1.000
    3.3049432990871739    0.0000000000000000    0.0000000000000000
   -1.6524716495435869    2.8621648550773053    0.0000000000000000
    0.0000000000000000    0.0000000000000000   26.8542259025954877
   C    N    O    Sc
    2    3    1    2
Direct
    0.3333329854322145    0.6666669831836742    0.6201648025494793     C1
    0.6666669847440475    0.3333329859851446    0.3799671700196046     C2
    0.0000000000000000    0.0000000000000000    0.5205655979560688     N1
    0.3333329854322145    0.6666669831836742    0.6648572171603673     N2
    0.6666669847440475    0.3333329859851446    0.4263695918169350     N3
    0.6666669847440475    0.3333329859851446    0.3351427828396328     O1
    0.3333329854322145    0.6666669831836742    0.4762542081494556    Sc1
    0.6666669847440475    0.3333329859851446    0.5668245340709126    Sc2
