Zr-Zr-N-SCN-OH
   1.000
    3.4291072619269563    0.0000000000000000    0.0000000000000000
   -1.7145536309634781    2.9696940011224311    0.0000000000000000
    0.0000000000000000    0.0000000000000000   27.2121880322634375
   C    H    N    O    S    Zr
    1    1    2    1    1    2
Direct
    0.3333329854322146    0.6666669831836742    0.6255168722307696     C1
    0.6666669847440474    0.3333329859851446    0.3307341544652485     H1
    0.0000000000000000    0.0000000000000000    0.4537866407431134     N1
    0.3333329854322146    0.6666669831836742    0.6692658455347515     N2
    0.6666669847440474    0.3333329859851446    0.3670559379888045     O1
    0.3333329854322146    0.6666669831836742    0.5635347125644201     S1
    0.3333329854322146    0.6666669831836742    0.4148761923358798    Zr1
    0.6666669847440474    0.3333329859851446    0.5023802098520884    Zr2
