Zr-Zr-N-CN-OH
   1.000
    3.3629955208244571    0.0000000000000000    0.0000000000000000
   -1.6814977604122285    2.9124395538396852    0.0000000000000000
    0.0000000000000000    0.0000000000000000   25.3801826405886857
   C    H    N    O    Zr
    1    1    2    1    2
Direct
    0.3333329854322145    0.6666669831836742    0.5979379201010937     C1
    0.6666669847440474    0.3333329859851446    0.3546073772379775     H1
    0.0000000000000000    0.0000000000000000    0.4913941739109785     N1
    0.3333329854322145    0.6666669831836742    0.6453926227620225     N2
    0.6666669847440474    0.3333329859851446    0.3935307060067175     O1
    0.3333329854322145    0.6666669831836742    0.4460539775225786    Zr1
    0.6666669847440474    0.3333329859851446    0.5386892337705658    Zr2
