Hf-Hf-N-OCl-H
   1.000
    3.1887703041038944    0.0000000000000000    0.0000000000000000
   -1.5943851520519472    2.7615560901825780    0.0000000000000000
    0.0000000000000000    0.0000000000000000   26.0113987082067801
   Cl   H    Hf   N    O 
    1    1    2    1    1
Direct
    0.3333329854322145    0.6666669831836742    0.6539978452923243    Cl1
    0.6666669847440475    0.3333329859851446    0.3460021547076758     H1
    0.3333329854322145    0.6666669831836742    0.3825721223470006    Hf1
    0.6666669847440475    0.3333329859851446    0.4838163184366975    Hf2
    0.0000000000000000    0.0000000000000000    0.4336604591632752     N1
    0.3333329854322145    0.6666669831836742    0.5202214154210912     O1
