Zr-Zr-N-OCl-F
   1.000
    3.2970861745527995    0.0000000000000000    0.0000000000000000
   -1.6485430872764006    2.8553603856295235    0.0000000000000000
    0.0000000000000000    0.0000000000000000   26.2167079765039581
   Cl   F    N    O    Zr
    1    1    1    1    2
Direct
    0.3333329854322145    0.6666669831836742    0.6567074703633264    Cl1
    0.6666669847440473    0.3333329859851446    0.3432925296366736     F1
    0.0000000000000000    0.0000000000000000    0.4420143848710804     N1
    0.3333329854322145    0.6666669831836742    0.5286049764770928     O1
    0.3333329854322145    0.6666669831836742    0.3940867810266385    Zr1
    0.6666669847440473    0.3333329859851446    0.4934458026855691    Zr2
