Y-Y-N-Br-OH
   1.000
    3.5886482430766788    0.0000000000000000    0.0000000000000000
   -1.7943241215383394    3.1078605437618156    0.0000000000000000
    0.0000000000000000    0.0000000000000000   24.8874910937891833
   Br   H    N    O    Y 
    1    1    1    1    2
Direct
    0.3333329854322146    0.6666669831836743    0.6383725476351449    Br1
    0.6666669847440474    0.3333329859851446    0.3616274523648550     H1
    0.0000000000000000    0.0000000000000000    0.5047492661101725     N1
    0.6666669847440474    0.3333329859851446    0.4013139676703706     O1
    0.3333329854322146    0.6666669831836743    0.4525512100751011     Y1
    0.6666669847440474    0.3333329859851446    0.5585501267049375     Y2
