Zr-Zr-N-SCN-F
   1.000
    3.4562675420012883    0.0000000000000000    0.0000000000000000
   -1.7281337710006441    2.9932154936482096    0.0000000000000000
    0.0000000000000000    0.0000000000000000   26.1371295820620801
   C    F    N    S    Zr
    1    1    2    1    2
Direct
    0.3333329854322145    0.6666669831836742    0.6101117993125171     C1
    0.6666669847440475    0.3333329859851446    0.3443377350119082     F1
    0.0000000000000000    0.0000000000000000    0.4315036591514494     N1
    0.3333329854322145    0.6666669831836742    0.6556622649880919     N2
    0.3333329854322145    0.6666669831836742    0.5455564446440093     S1
    0.3333329854322145    0.6666669831836742    0.3928024553104847    Zr1
    0.6666669847440475    0.3333329859851446    0.4825579211588387    Zr2
