Zr-Zr-N-H-H
   1.000
    3.2619281599201964    0.0000000000000000    0.0000000000000000
   -1.6309640799600982    2.8249126518047976    0.0000000000000000
    0.0000000000000000    0.0000000000000000   22.5739952602481999
   H    N    Zr
    2    1    2
Direct
    0.3333329854322145    0.6666669831836742    0.6013111593122109     H1
    0.6666669847440473    0.3333329859851447    0.3986888406877891     H2
    0.0000000000000000    0.0000000000000000    0.5000000388925294     N1
    0.3333329854322145    0.6666669831836742    0.4446223856434376    Zr1
    0.6666669847440473    0.3333329859851447    0.5553776137760664    Zr2
