Hf-Hf-C-SCN-O
   1.000
    3.3611839962232573    0.0000000000000000    0.0000000000000000
   -1.6805919981116286    2.9108707275042507    0.0000000000000000
    0.0000000000000000    0.0000000000000000   26.0672071990500811
   C    Hf   N    O    S 
    2    2    1    1    1
Direct
    0.0000000000000000    0.0000000000000000    0.4328114547312569     C1
    0.3333329854322145    0.6666669831836742    0.6090687631350440     C2
    0.3333329854322145    0.6666669831836742    0.3799648030822899    Hf1
    0.6666669847440474    0.3333329859851447    0.4798772618785111    Hf2
    0.3333329854322145    0.6666669831836742    0.6547386173257574     N1
    0.6666669847440474    0.3333329859851447    0.3452613826742425     O1
    0.3333329854322145    0.6666669831836742    0.5444293857699717     S1
