Y-Y-N-NO-SCN
   1.000
    3.7248054757920377    0.0000000000000000    0.0000000000000000
   -1.8624027378960188    3.2257761662159621    0.0000000000000000
    0.0000000000000000    0.0000000000000000   27.5249105979887077
   C    N    O    S    Y 
    1    3    1    1    2
Direct
    0.6666669847440474    0.3333329859851446    0.3702135088526802     C1
    0.0000000000000000    0.0000000000000000    0.5342382255332520     N1
    0.3333329854322145    0.6666669831836742    0.6236573748691504     N2
    0.6666669847440474    0.3333329859851446    0.3269765388686728     N3
    0.3333329854322145    0.6666669831836742    0.6730234611313272     O1
    0.6666669847440474    0.3333329859851446    0.4309972508145016     S1
    0.3333329854322145    0.6666669831836742    0.4954698093608746     Y1
    0.6666669847440474    0.3333329859851446    0.5972073921965537     Y2
