Ti-Ti-C-NO-OH
   1.000
    3.1600973996026562    0.0000000000000000    0.0000000000000000
   -1.5800486998013281    2.7367246264881913    0.0000000000000000
    0.0000000000000000    0.0000000000000000   24.9087787374860632
   C    H    N    O    Ti
    1    1    1    2    2
Direct
    0.0000000000000000    0.0000000000000000    0.4941046510425626     C1
    0.6666669847440474    0.3333329859851446    0.3613183968130720     H1
    0.3333329854322145    0.6666669831836741    0.5859636306721492     N1
    0.3333329854322145    0.6666669831836741    0.6386816031869280     O1
    0.6666669847440474    0.3333329859851446    0.4008701547346351     O2
    0.3333329854322145    0.6666669831836741    0.4516927690379654    Ti1
    0.6666669847440474    0.3333329859851446    0.5478128931561282    Ti2
