Hf-Hf-C-OCl-PO
   1.000
    3.2690335062139599    0.0000000000000000    0.0000000000000000
   -1.6345167531069800    2.8310660622038006    0.0000000000000000
    0.0000000000000000    0.0000000000000000   28.3960182187011085
   C    Cl   Hf   O    P 
    1    1    2    2    1
Direct
    0.0000000000000000    0.0000000000000000    0.4814952593536903     C1
    0.3333329854322145    0.6666669831836742    0.6830541546112701    Cl1
    0.3333329854322145    0.6666669831836742    0.4382078420991470    Hf1
    0.6666669847440474    0.3333329859851446    0.5318513302808374    Hf2
    0.3333329854322145    0.6666669831836742    0.5628833375832539     O1
    0.6666669847440474    0.3333329859851446    0.3169458453887299     O2
    0.6666669847440474    0.3333329859851446    0.3695381630495252     P1
