Y-Y-N-OCl-OCl
   1.000
    3.6710132950719467    0.0000000000000000    0.0000000000000000
   -1.8355066475359734    3.1791907711522249    0.0000000000000000
    0.0000000000000000    0.0000000000000000   26.4596183908491724
   Cl   N    O    Y 
    2    1    2    2
Direct
    0.3333329854322145    0.6666669831836742    0.6598590400263455    Cl1
    0.6666669847440474    0.3333329859851445    0.3401409599736545    Cl2
    0.0000000000000000    0.0000000000000000    0.5000000261979898     N1
    0.3333329854322145    0.6666669831836742    0.5831561775292213     O1
    0.6666669847440474    0.3333329859851445    0.4168438224707859     O2
    0.3333329854322145    0.6666669831836742    0.4467265490502589     Y1
    0.6666669847440474    0.3333329859851445    0.5532734505587265     Y2
