Hf-Hf-N-OCl-OH
   1.000
    3.1978289340785051    0.0000000000000000    0.0000000000000000
   -1.5989144670392534    2.7694010938578737    0.0000000000000000
    0.0000000000000000    0.0000000000000000   27.3522424739756786
   Cl   H    Hf   N    O 
    1    1    2    1    2
Direct
    0.3333329854322145    0.6666669831836742    0.6709593369332310    Cl1
    0.6666669847440474    0.3333329859851446    0.3290406630667690     H1
    0.3333329854322145    0.6666669831836742    0.4149988311944260    Hf1
    0.6666669847440474    0.3333329859851446    0.5107313574875504    Hf2
    0.0000000000000000    0.0000000000000000    0.4627392849525801     N1
    0.3333329854322145    0.6666669831836742    0.5452715123080873     O1
    0.6666669847440474    0.3333329859851446    0.3656703038339721     O2
