Y-Y-N-Cl-Cl
   1.000
    3.6191222896529123    0.0000000000000000    0.0000000000000000
   -1.8095611448264561    3.1342518422562362    0.0000000000000000
    0.0000000000000000    0.0000000000000000   24.1697402246860342
   Cl   N    Y 
    2    1    2
Direct
    0.3333329854322145    0.6666669831836742    0.6276335650969161    Cl1
    0.6666669847440472    0.3333329859851445    0.3723664349030839    Cl2
    0.0000000000000000    0.0000000000000000    0.5000000295083483     N1
    0.3333329854322145    0.6666669831836742    0.4460163345759919     Y1
    0.6666669847440472    0.3333329859851445    0.5539836649835770     Y2
