Hf-Hf-C-NO-PO
   1.000
    3.3125965716087822    0.0000000000000000    0.0000000000000000
   -1.6562982858043911    2.8687927834936815    0.0000000000000000
    0.0000000000000000    0.0000000000000000   26.4758600224816618
   C    Hf   N    O    P 
    1    2    1    2    1
Direct
    0.0000000000000000    0.0000000000000000    0.5155474152246391     C1
    0.3333329854322145    0.6666669831836742    0.4696687018257498    Hf1
    0.6666669847440474    0.3333329859851446    0.5663415161849601    Hf2
    0.3333329854322145    0.6666669831836742    0.6100334217667691     N1
    0.3333329854322145    0.6666669831836742    0.6600676996948256     O1
    0.6666669847440474    0.3333329859851446    0.3399323003051745     O2
    0.6666669847440474    0.3333329859851446    0.3963729006358888     P1
