Y-Y-C-PO-Cl
   1.000
    3.6716359228692594    0.0000000000000000    0.0000000000000000
   -1.8358179614346297    3.1797299827061836    0.0000000000000000
    0.0000000000000000    0.0000000000000000   26.0660176386072777
   C    Cl   O    P    Y 
    1    1    1    1    2
Direct
    0.0000000000000000    0.0000000000000000    0.4652652803585084     C1
    0.6666669847440474    0.3333329859851446    0.3452771391771710    Cl1
    0.3333329854322144    0.6666669831836742    0.6547228608228290     O1
    0.3333329854322144    0.6666669831836742    0.5972488475157409     P1
    0.3333329854322144    0.6666669831836742    0.4129189636089357     Y1
    0.6666669847440474    0.3333329859851446    0.5162789150961207     Y2
