Hf-Hf-N-SCN-Cl
   1.000
    3.4606972848742408    0.0000000000000000    0.0000000000000000
   -1.7303486424371204    2.9970517635012328    0.0000000000000000
    0.0000000000000000    0.0000000000000000   26.4638963075317015
   C    Cl   Hf   N    S 
    1    1    2    2    1
Direct
    0.3333329854322146    0.6666669831836742    0.6149353201603649     C1
    0.6666669847440474    0.3333329859851446    0.3400859758295899    Cl1
    0.3333329854322146    0.6666669831836742    0.4061686105073130    Hf1
    0.6666669847440474    0.3333329859851446    0.4902956015464441    Hf2
    0.0000000000000000    0.0000000000000000    0.4446173881171611     N1
    0.3333329854322146    0.6666669831836742    0.6599140241704100     N2
    0.3333329854322146    0.6666669831836742    0.5510019462368660     S1
