Ti-Ti-N-NCO-SCN
   1.000
    3.2716160259795921    0.0000000000000000    0.0000000000000000
   -1.6358080129897961    2.8333025899344388    0.0000000000000000
    0.0000000000000000    0.0000000000000000   28.2515115877621277
   C    N    O    S    Ti
    2    3    1    1    2
Direct
    0.3333329854322145    0.6666669831836742    0.6388149515996753     C1
    0.6666669847440473    0.3333329859851446    0.3607266233692934     C2
    0.0000000000000000    0.0000000000000000    0.5132924313593491     N1
    0.3333329854322145    0.6666669831836742    0.5946554707617480     N2
    0.6666669847440473    0.3333329859851446    0.3185670250613628     N3
    0.3333329854322145    0.6666669831836742    0.6814329749386372     O1
    0.6666669847440473    0.3333329859851446    0.4200345019130057     S1
    0.3333329854322145    0.6666669831836742    0.4754007153925887    Ti1
    0.6666669847440473    0.3333329859851446    0.5479784746211840    Ti2
