Sc-Sc-N-OCl-NCS
   1.000
    3.3208456668656310    0.0000000000000000    0.0000000000000000
   -1.6604228334328155    2.8759367095532906    0.0000000000000000
    0.0000000000000000    0.0000000000000000   29.2815350301484862
   C    Cl   N    O    S    Sc
    1    1    2    1    1    2
Direct
    0.6666669847440474    0.3333329859851446    0.3605920895850537     C1
    0.3333329854322145    0.6666669831836742    0.6926390644912047    Cl1
    0.0000000000000000    0.0000000000000000    0.4842110073216898     N1
    0.6666669847440474    0.3333329859851446    0.4029590463271199     N2
    0.3333329854322145    0.6666669831836742    0.5616671706723407     O1
    0.6666669847440474    0.3333329859851446    0.3073609355087953     S1
    0.3333329854322145    0.6666669831836742    0.4505817299780309    Sc1
    0.6666669847440474    0.3333329859851446    0.5399218405640381    Sc2
