Ti-Ti-C-SCN-F
   1.000
    3.2934399940016084    0.0000000000000000    0.0000000000000000
   -1.6467199970008042    2.8522027006495114    0.0000000000000000
    0.0000000000000000    0.0000000000000000   25.7807630685294207
   C    F    N    S    Ti
    2    1    1    1    2
Direct
    0.0000000000000000    0.0000000000000000    0.4360290815949711     C1
    0.3333329854322145    0.6666669831836742    0.6047097400055308     C2
    0.6666669847440473    0.3333329859851446    0.3490975025090045     F1
    0.3333329854322145    0.6666669831836742    0.6509024974909954     N1
    0.3333329854322145    0.6666669831836742    0.5396435182841756     S1
    0.3333329854322145    0.6666669831836742    0.3953012337409690    Ti1
    0.6666669847440473    0.3333329859851446    0.4795166221775606    Ti2
