Ti-Ti-C-NCS-Cl
   1.000
    3.2359512893867133    0.0000000000000000    0.0000000000000000
   -1.6179756446933566    2.8024160220180701    0.0000000000000000
    0.0000000000000000    0.0000000000000000   25.9798673169443113
   C    Cl   N    S    Ti
    2    1    1    1    2
Direct
    0.0000000000000000    0.0000000000000000    0.4529849726680815     C1
    0.3333329854322145    0.6666669831836742    0.5938515828559388     C2
    0.6666669847440474    0.3333329859851446    0.3464220925458737    Cl1
    0.3333329854322145    0.6666669831836742    0.5456516976533460     N1
    0.3333329854322145    0.6666669831836742    0.6535779074541264     S1
    0.3333329854322145    0.6666669831836742    0.4112850321679806    Ti1
    0.6666669847440474    0.3333329859851446    0.4964274319906727    Ti2
