Zr-Zr-C-NO-NCS
   1.000
    3.4385471403418992    0.0000000000000000    0.0000000000000000
   -1.7192735701709496    2.9778691756337969    0.0000000000000000
    0.0000000000000000    0.0000000000000000   27.1046936279317130
   C    N    O    S    Zr
    2    2    1    1    2
Direct
    0.0000000000000000    0.0000000000000000    0.5294697552196334     C1
    0.6666669847440474    0.3333329859851446    0.3893878264271511     C2
    0.3333329854322145    0.6666669831836742    0.6189251072277908     N1
    0.6666669847440474    0.3333329859851446    0.4356160630840543     N2
    0.3333329854322145    0.6666669831836742    0.6679541881733210     O1
    0.6666669847440474    0.3333329859851446    0.3320458118266790     S1
    0.3333329854322145    0.6666669831836742    0.4870944162497244    Zr1
    0.6666669847440474    0.3333329859851446    0.5829669901729082    Zr2
