 La-La-C-F-H                            
   1.0000000000000000     
     3.7948161421613165    0.0000000000000010    0.0000000000000000
    -1.8974080710806571    3.2864071818050169    0.0000000000000003
     0.0000000000000030    0.0000000000000047   24.2051149691412988
   C    F    H    La
     1     1     1     2
Direct
 -0.0000000000000000 -0.0000000000000000  0.4982360753059044
  0.3333329854322145  0.6666669831836742  0.6088313104482717
  0.0000000000000000  0.0000000000000000  0.3859914474687769
  0.3333329854322145  0.6666669831836742  0.4342694916449988
  0.6666669847440474  0.3333329859851446  0.5594604994312594

  0.00000000E+00  0.00000000E+00  0.00000000E+00
  0.00000000E+00  0.00000000E+00  0.00000000E+00
  0.00000000E+00  0.00000000E+00  0.00000000E+00
  0.00000000E+00  0.00000000E+00  0.00000000E+00
  0.00000000E+00  0.00000000E+00  0.00000000E+00
