Zr-Zr-C-O-OCN
   1.000
    3.3371645152086735    0.0000000000000000    0.0000000000000000
   -1.6685822576043368    2.8900692467666813    0.0000000000000000
    0.0000000000000000    0.0000000000000000   25.5325906512411933
   C    N    O    Zr
    2    1    2    2
Direct
    0.0000000000000000    0.0000000000000000    0.5541735878514611     C1
    0.6666669847440473    0.3333329859851446    0.3990163894227188     C2
    0.6666669847440473    0.3333329859851446    0.3524906705682249     N1
    0.3333329854322145    0.6666669831836742    0.6475093294317751     O1
    0.6666669847440473    0.3333329859851446    0.4513430241913349     O2
    0.3333329854322145    0.6666669831836742    0.5059506597020188    Zr1
    0.6666669847440473    0.3333329859851446    0.6102998439853128    Zr2
