Y-Y-N-O-OH
   1.000
    3.5516842920329079    0.0000000000000000    0.0000000000000000
   -1.7758421460164540    3.0758488231219929    0.0000000000000000
    0.0000000000000000    0.0000000000000000   23.9099209122809455
   H    N    O    Y 
    1    1    2    2
Direct
    0.6666669847440475    0.3333329859851445    0.3764127883575430     H1
    0.0000000000000000    0.0000000000000000    0.5205739162677131     N1
    0.3333329854322145    0.6666669831836742    0.6235872116424570     O1
    0.6666669847440475    0.3333329859851445    0.4175351028752566     O2
    0.3333329854322145    0.6666669831836742    0.4738726714489248     Y1
    0.6666669847440475    0.3333329859851445    0.5930839076328320     Y2
