Sc-Sc-N-Br-OCN
   1.000
    3.3777957482135235    0.0000000000000000    0.0000000000000000
   -1.6888978741067617    2.9252569267470063    0.0000000000000000
    0.0000000000000000    0.0000000000000000   25.9965327712105179
   Br   C    N    O    Sc
    1    1    2    1    2
Direct
    0.3333329854322145    0.6666669831836742    0.6537999863594532    Br1
    0.6666669847440474    0.3333329859851445    0.3919029054577988     C1
    0.0000000000000000    0.0000000000000000    0.5355631918443569     N1
    0.6666669847440474    0.3333329859851445    0.3462000136405466     N2
    0.6666669847440474    0.3333329859851445    0.4433164447788985     O1
    0.3333329854322145    0.6666669831836742    0.4906388421587189    Sc1
    0.6666669847440474    0.3333329859851445    0.5820167378089176    Sc2
