Y-Y-N-OCl-O
   1.000
    3.5834167808172950    0.0000000000000000    0.0000000000000000
   -1.7917083904086475    3.1033299645378372    0.0000000000000000
    0.0000000000000000    0.0000000000000000   24.5313564661305641
   Cl   N    O    Y 
    1    1    2    2
Direct
    0.3333329854322145    0.6666669831836742    0.6331226113637078    Cl1
    0.0000000000000000    0.0000000000000000    0.4660191799422563     N1
    0.3333329854322145    0.6666669831836742    0.5629713502648379     O1
    0.6666669847440474    0.3333329859851445    0.3668773886362922     O2
    0.3333329854322145    0.6666669831836742    0.3954904325591597     Y1
    0.6666669847440474    0.3333329859851445    0.5114609321198018     Y2
