Hf-Hf-N-SCN-OCN
   1.000
    3.4114631884818118    0.0000000000000000    0.0000000000000000
   -1.7057315942409059    2.9544137852969241    0.0000000000000000
    0.0000000000000000    0.0000000000000000   28.6448131324088457
   C    Hf   N    O    S 
    2    2    3    1    1
Direct
    0.3333329854322145    0.6666669831836743    0.6442505845629886     C1
    0.6666669847440475    0.3333329859851446    0.3556590092204214     C2
    0.3333329854322145    0.6666669831836743    0.4486646055700494    Hf1
    0.6666669847440475    0.3333329859851446    0.5288569214286217    Hf2
    0.0000000000000000    0.0000000000000000    0.4830216685239057     N1
    0.3333329854322145    0.6666669831836743    0.6858069920582806     N2
    0.6666669847440475    0.3333329859851446    0.3141930079417194     N3
    0.6666669847440475    0.3333329859851446    0.4024747596936615     O1
    0.3333329854322145    0.6666669831836743    0.5850055610550334     S1
