Hf-Hf-N-OCl-Cl
   1.000
    3.2306591483702460    0.0000000000000000    0.0000000000000000
   -1.6153295741851226    2.7978328934600603    0.0000000000000000
    0.0000000000000000    0.0000000000000000   26.7736269010918448
   Cl   Hf   N    O 
    2    2    1    1
Direct
    0.3333329854322146    0.6666669831836743    0.6638483073941328    Cl1
    0.6666669847440474    0.3333329859851446    0.3361516926058671    Cl2
    0.3333329854322146    0.6666669831836743    0.4041618300412115    Hf1
    0.6666669847440474    0.3333329859851446    0.5023837513704600    Hf2
    0.0000000000000000    0.0000000000000000    0.4543535820660791     N1
    0.3333329854322146    0.6666669831836743    0.5365593829594306     O1
