Sc-Sc-N-NCS-Br
   1.000
    3.4054106563416968    0.0000000000000000    0.0000000000000000
   -1.7027053281708484    2.9491721386973220    0.0000000000000000
    0.0000000000000000    0.0000000000000000   26.3183669980685302
   Br   C    N    S    Sc
    1    1    2    1    2
Direct
    0.6666669847440473    0.3333329859851446    0.3419665057737244    Br1
    0.3333329854322146    0.6666669831836742    0.5989716757241348     C1
    0.0000000000000000    0.0000000000000000    0.4571484243950952     N1
    0.3333329854322146    0.6666669831836742    0.5514243447359033     N2
    0.3333329854322146    0.6666669831836742    0.6580334942262756     S1
    0.3333329854322146    0.6666669831836742    0.4128704535173005    Sc1
    0.6666669847440473    0.3333329859851446    0.5035117681774162    Sc2
