Sc-Sc-N-NCO-NCO
   1.000
    3.2842474650183329    0.0000000000000000    0.0000000000000000
   -1.6421237325091664    2.8442417370738631    0.0000000000000000
    0.0000000000000000    0.0000000000000000   28.0154793807909783
   C    N    O    Sc
    2    3    2    2
Direct
    0.3333329854322145    0.6666669831836743    0.6357757349406769     C1
    0.6666669847440474    0.3333329859851447    0.3642242645979300     C2
    0.0000000000000000    0.0000000000000000    0.5000000309138897     N1
    0.3333329854322145    0.6666669831836743    0.5913163178317279     N2
    0.6666669847440474    0.3333329859851447    0.4086836821682803     N3
    0.3333329854322145    0.6666669831836743    0.6787490273619620     O1
    0.6666669847440474    0.3333329859851447    0.3212509726380380     O2
    0.3333329854322145    0.6666669831836743    0.4566993902773334    Sc1
    0.6666669847440474    0.3333329859851447    0.5433006092612653    Sc2
