Ti-Ti-N-SCN-PO
   1.000
    3.2231522822443215    0.0000000000000000    0.0000000000000000
   -1.6115761411221607    2.7913317566944045    0.0000000000000000
    0.0000000000000000    0.0000000000000000   27.9347930402253262
   C    N    O    P    S    Ti
    1    2    1    1    1    2
Direct
    0.3333329854322145    0.6666669831836741    0.6351916407729450     C1
    0.0000000000000000    0.0000000000000000    0.4787020096558198     N1
    0.3333329854322145    0.6666669831836741    0.6778211319826051     N2
    0.6666669847440474    0.3333329859851446    0.3221788680173950     O1
    0.6666669847440474    0.3333329859851446    0.3755938741079888     P1
    0.3333329854322145    0.6666669831836741    0.5749401715822231     S1
    0.3333329854322145    0.6666669831836741    0.4414778472299333    Ti1
    0.6666669847440474    0.3333329859851446    0.5194056249132659    Ti2
