Sc-Sc-C-CN-Br
   1.000
    3.4752873971165208    0.0000000000000000    0.0000000000000000
   -1.7376436985582604    3.0096871713559605    0.0000000000000000
    0.0000000000000000    0.0000000000000000   24.9060093102869757
   Br   C    N    Sc
    1    2    1    2
Direct
    0.6666669847440474    0.3333329859851445    0.3613585736628916    Br1
    0.0000000000000000    0.0000000000000000    0.4849302139112859     C1
    0.3333329854322145    0.6666669831836742    0.5904874184108047     C2
    0.3333329854322145    0.6666669831836742    0.6386414263371085     N1
    0.3333329854322145    0.6666669831836742    0.4358383824943189    Sc1
    0.6666669847440474    0.3333329859851445    0.5344158707217626    Sc2
