Zr-Zr-C-NCS-Cl
   1.000
    3.4371351238977446    0.0000000000000000    0.0000000000000000
   -1.7185675619488723    2.9766463335209701    0.0000000000000000
    0.0000000000000000    0.0000000000000000   26.4359210123585839
   C    Cl   N    S    Zr
    2    1    1    1    2
Direct
    0.0000000000000000    0.0000000000000000    0.4542310700890164     C1
    0.3333329854322145    0.6666669831836742    0.6007341906246536     C2
    0.6666669847440474    0.3333329859851446    0.3404458651466151    Cl1
    0.3333329854322145    0.6666669831836742    0.5533617746530790     N1
    0.3333329854322145    0.6666669831836742    0.6595541348533849     S1
    0.3333329854322145    0.6666669831836742    0.4086631853949905    Zr1
    0.6666669847440474    0.3333329859851446    0.5008509574597289    Zr2
