Hf-Hf-N-NCO-H
   1.000
    3.2717708316678320    0.0000000000000000    0.0000000000000000
   -1.6358854158339160    2.8334366555850066    0.0000000000000000
    0.0000000000000000    0.0000000000000000   25.2182556023234348
   C    H    Hf   N    O 
    1    1    2    2    1
Direct
    0.3333329854322145    0.6666669831836742    0.5953233732515676     C1
    0.6666669847440474    0.3333329859851446    0.3568843199119135     H1
    0.3333329854322145    0.6666669831836742    0.3965287810527256    Hf1
    0.6666669847440474    0.3333329859851446    0.4891033839201016    Hf2
    0.0000000000000000    0.0000000000000000    0.4433314602115364     N1
    0.3333329854322145    0.6666669831836742    0.5457200664367189     N2
    0.3333329854322145    0.6666669831836742    0.6431156800880865     O1
