Y-Y-N-O-F
   1.000
    3.5475136300268728    0.0000000000000000    0.0000000000000000
   -1.7737568150134364    3.0722369238745499    0.0000000000000000
    0.0000000000000000    0.0000000000000000   22.7961082593315894
   F    N    O    Y 
    1    1    1    2
Direct
    0.6666669847440475    0.3333329859851445    0.3948042313896210     F1
    0.0000000000000000    0.0000000000000000    0.4970544257368574     N1
    0.3333329854322146    0.6666669831836742    0.6051957686103790     O1
    0.3333329854322146    0.6666669831836742    0.4481837757070453     Y1
    0.6666669847440475    0.3333329859851445    0.5733936958160717     Y2
