Zr-Zr-N-NO-OH
   1.000
    3.3286994892151083    0.0000000000000000    0.0000000000000000
   -1.6643497446075541    2.8827383192241083    0.0000000000000000
    0.0000000000000000    0.0000000000000000   25.3622746527333582
   H    N    O    Zr
    1    2    2    2
Direct
    0.6666669847440475    0.3333329859851446    0.3548577611129232     H1
    0.0000000000000000    0.0000000000000000    0.4930134272992953     N1
    0.3333329854322146    0.6666669831836742    0.5933496896625510     N2
    0.3333329854322146    0.6666669831836742    0.6451422388870769     O1
    0.6666669847440475    0.3333329859851446    0.3938571118175805     O2
    0.3333329854322146    0.6666669831836742    0.4474534619141707    Zr1
    0.6666669847440475    0.3333329859851446    0.5442261455937152    Zr2
