Ti-Ti-C-O-OCN
   1.000
    3.1121107137534789    0.0000000000000000    0.0000000000000000
   -1.5560553568767395    2.6951669375059404    0.0000000000000000
    0.0000000000000000    0.0000000000000000   25.1792825761517811
   C    N    O    Ti
    2    1    2    2
Direct
    0.0000000000000000    0.0000000000000000    0.5539646294931770     C1
    0.6666669847440473    0.3333329859851446    0.4046052871245940     C2
    0.6666669847440473    0.3333329859851446    0.3574367130112051     N1
    0.3333329854322145    0.6666669831836742    0.6425632869887949     O1
    0.6666669847440473    0.3333329859851446    0.4576806816296197     O2
    0.3333329854322145    0.6666669831836742    0.5094597237078183    Ti1
    0.6666669847440473    0.3333329859851446    0.6070221225353138    Ti2
