Zr-Zr-C-F-OH
   1.000
    3.3623647606772282    0.0000000000000000    0.0000000000000000
   -1.6811823803386141    2.9118932995295408    0.0000000000000000
    0.0000000000000000    0.0000000000000000   24.1140591801999200
   C    F    H    O    Zr
    1    1    1    1    2
Direct
    0.0000000000000000    0.0000000000000000    0.5218580667050663     C1
    0.3333329854322145    0.6666669831836742    0.6267737450279665     F1
    0.6666669847440474    0.3333329859851446    0.3732262549720334     H1
    0.6666669847440474    0.3333329859851446    0.4141630664748807     O1
    0.3333329854322145    0.6666669831836742    0.4700483722794401    Zr1
    0.6666669847440474    0.3333329859851446    0.5719808463022134    Zr2
