Ti-Ti-N-Cl-OCN
   1.000
    3.2103828098453819    0.0000000000000000    0.0000000000000000
   -1.6051914049226910    2.7802730692001933    0.0000000000000000
    0.0000000000000000    0.0000000000000000   25.5375836775067313
   C    Cl   N    O    Ti
    1    1    2    1    2
Direct
    0.6666669847440474    0.3333329859851447    0.3989304651656810     C1
    0.3333329854322145    0.6666669831836743    0.6475782472745408    Cl1
    0.0000000000000000    0.0000000000000000    0.5408406588232326     N1
    0.6666669847440474    0.3333329859851447    0.3524217527254592     N2
    0.6666669847440474    0.3333329859851447    0.4512224444275540     O1
    0.3333329854322145    0.6666669831836743    0.5011274645262009    Ti1
    0.6666669847440474    0.3333329859851447    0.5816079825242078    Ti2
