Sc-Sc-C-NCO-NCS
   1.000
    3.4027248983590881    0.0000000000000000    0.0000000000000000
   -1.7013624491795440    2.9468462040616705    0.0000000000000000
    0.0000000000000000    0.0000000000000000   28.3743765138734503
   C    N    O    S    Sc
    3    2    1    1    2
Direct
    0.0000000000000000    0.0000000000000000    0.5058652634949052     C1
    0.3333329854322145    0.6666669831836742    0.6403339006796533     C2
    0.6666669847440474    0.3333329859851446    0.3719922104630053     C3
    0.3333329854322145    0.6666669831836742    0.5964312764439541     N1
    0.6666669847440474    0.3333329859851446    0.4159376484305717     N2
    0.3333329854322145    0.6666669831836742    0.6828124136719087     O1
    0.6666669847440474    0.3333329859851446    0.3171875863280913     S1
    0.3333329854322145    0.6666669831836742    0.4617425347683004    Sc1
    0.6666669847440474    0.3333329859851446    0.5496308668053325    Sc2
