Y-Y-C-OCl-F
   1.000
    3.7148860738357659    0.0000000000000000    0.0000000000000000
   -1.8574430369178829    3.2171857120958607    0.0000000000000000
    0.0000000000000000    0.0000000000000000   24.3606910234612712
   C    Cl   F    O    Y 
    1    1    1    1    2
Direct
    0.0000000000000000    0.0000000000000000    0.4582087002092988     C1
    0.3333329854322145    0.6666669831836741    0.6305523520932846    Cl1
    0.6666669847440474    0.3333329859851445    0.3694476479067154     F1
    0.3333329854322145    0.6666669831836741    0.5216514272962078     O1
    0.3333329854322145    0.6666669831836741    0.4184629233409635     Y1
    0.6666669847440474    0.3333329859851445    0.5484922371464357     Y2
