Hf-Hf-N-CN-NO
   1.000
    3.2784021355495527    0.0000000000000000    0.0000000000000000
   -1.6392010677747764    2.8391795332091334    0.0000000000000000
    0.0000000000000000    0.0000000000000000   25.6617683978965800
   C    Hf   N    O 
    1    2    3    1
Direct
    0.3333329854322145    0.6666669831836742    0.6020955330931527     C1
    0.3333329854322145    0.6666669831836742    0.4477599609227420    Hf1
    0.6666669847440474    0.3333329859851446    0.5455038135981666    Hf2
    0.0000000000000000    0.0000000000000000    0.4978220665352023     N1
    0.3333329854322145    0.6666669831836742    0.6492837180800952     N2
    0.6666669847440474    0.3333329859851446    0.4027507955980492     N3
    0.6666669847440474    0.3333329859851446    0.3507162819199048     O1
