Hf-Hf-N-PO-Br
   1.000
    3.3507610138186430    0.0000000000000000    0.0000000000000000
   -1.6753805069093215    2.9018441599763922    0.0000000000000000
    0.0000000000000000    0.0000000000000000   25.7250369746243557
   Br   Hf   N    O    P 
    1    2    1    1    1
Direct
    0.6666669847440474    0.3333329859851447    0.3498537245593762    Br1
    0.3333329854322146    0.6666669831836743    0.4262480372614235    Hf1
    0.6666669847440474    0.3333329859851447    0.5185340513524035    Hf2
    0.0000000000000000    0.0000000000000000    0.4699602050716811     N1
    0.3333329854322146    0.6666669831836743    0.6501462754406238     O1
    0.3333329854322146    0.6666669831836743    0.5919292463107702     P1
