Sc-Sc-N-NCS-NCS
   1.000
    3.3576253533363611    0.0000000000000000    0.0000000000000000
   -1.6788126766681806    2.9077888523561404    0.0000000000000000
    0.0000000000000000    0.0000000000000000   28.5858710416742916
   C    N    S    Sc
    2    3    2    2
Direct
    0.3333329854322145    0.6666669831836742    0.6308264288893777     C1
    0.6666669847440475    0.3333329859851445    0.3691735711106222     C2
    0.0000000000000000    0.0000000000000000    0.5000000292036053     N1
    0.3333329854322145    0.6666669831836742    0.5870300761602647     N2
    0.6666669847440475    0.3333329859851445    0.4129699242723812     N3
    0.3333329854322145    0.6666669831836742    0.6851591477874077     S1
    0.6666669847440475    0.3333329859851445    0.3148408522125923     S2
    0.3333329854322145    0.6666669831836742    0.4574003620090546    Sc1
    0.6666669847440475    0.3333329859851445    0.5425996379909376    Sc2
