Y-Y-N-NCO-OCN
   1.000
    3.5478920966863940    0.0000000000000000    0.0000000000000000
   -1.7739460483431970    3.0725646855995392    0.0000000000000000
    0.0000000000000000    0.0000000000000000   28.3682486979059334
   C    N    O    Y 
    2    3    2    2
Direct
    0.3333329854322145    0.6666669831836742    0.6402810953519343     C1
    0.6666669847440474    0.3333329859851446    0.3591563261710494     C2
    0.0000000000000000    0.0000000000000000    0.4986577521359123     N1
    0.3333329854322145    0.6666669831836742    0.5963166383746660     N2
    0.6666669847440474    0.3333329859851446    0.3172561019131349     N3
    0.3333329854322145    0.6666669831836742    0.6827438980868651     O1
    0.6666669847440474    0.3333329859851446    0.4062126771050423     O2
    0.3333329854322145    0.6666669831836742    0.4529030167603464     Y1
    0.6666669847440474    0.3333329859851446    0.5460724707293064     Y2
