Y-Y-C-PO-Br
   1.000
    3.7010022312966502    0.0000000000000000    0.0000000000000000
   -1.8505011156483251    3.2051619518206689    0.0000000000000000
    0.0000000000000000    0.0000000000000000   26.2352651599604343
   Br   C    O    P    Y 
    1    1    1    1    2
Direct
    0.6666669847440473    0.3333329859851446    0.3430497060016592    Br1
    0.0000000000000000    0.0000000000000000    0.4693044282653698     C1
    0.3333329854322145    0.6666669831836742    0.6569502939983408     O1
    0.3333329854322145    0.6666669831836742    0.5998294001167375     P1
    0.3333329854322145    0.6666669831836742    0.4176632811669215     Y1
    0.6666669847440473    0.3333329859851446    0.5198187160030128     Y2
