Ti2C
1.0
  3.000000 0.000000 0.000000
 -1.500000 2.598076 0.000000
  0.000000 0.000000 20.000000
V C
2 1
Direct
  0.333333 0.666667 0.25
  0.666667 0.333333 0.75
  0.000000 0.000000 0.5
