Hf-Hf-C-H-OH
   1.000
    3.2690628055511368    0.0000000000000000    0.0000000000000000
   -1.6345314027755684    2.8310914361702246    0.0000000000000000
    0.0000000000000000    0.0000000000000000   23.7843683562699759
   C    H    Hf   O 
    1    2    2    1
Direct
    0.0000000000000000    0.0000000000000000    0.5262023803027100     C1
    0.3333329854322146    0.6666669831836742    0.6216002096340119     H1
    0.6666669847440474    0.3333329859851446    0.3783997903659881     H2
    0.3333329854322146    0.6666669831836742    0.4759767143689355    Hf1
    0.6666669847440474    0.3333329859851446    0.5794877756075860    Hf2
    0.6666669847440474    0.3333329859851446    0.4200221974371182     O1
