Hf-Hf-N-NCS-SCN
   1.000
    3.4139440964554284    0.0000000000000000    0.0000000000000000
   -1.7069720482277142    2.9565623146280440    0.0000000000000000
    0.0000000000000000    0.0000000000000000   28.9532771737328147
   C    Hf   N    S 
    2    2    3    2
Direct
    0.3333329854322145    0.6666669831836742    0.6356068465242413     C1
    0.6666669847440474    0.3333329859851446    0.3519560125918764     C2
    0.3333329854322145    0.6666669831836742    0.4666815741430832    Hf1
    0.6666669847440474    0.3333329859851446    0.5464985934684590    Hf2
    0.0000000000000000    0.0000000000000000    0.5095236028215014     N1
    0.3333329854322145    0.6666669831836742    0.5918447663365975     N2
    0.6666669847440474    0.3333329859851446    0.3108456409267908     N3
    0.3333329854322145    0.6666669831836742    0.6891543590732092     S1
    0.6666669847440474    0.3333329859851446    0.4104976879278234     S2
