Zr-Zr-C-PO-Cl
   1.000
    3.3736060167462849    0.0000000000000000    0.0000000000000000
   -1.6868030083731425    2.9216285128605510    0.0000000000000000
    0.0000000000000000    0.0000000000000000   25.8223056813334324
   C    Cl   O    P    Zr
    1    1    1    1    2
Direct
    0.0000000000000000    0.0000000000000000    0.4667009422892291     C1
    0.6666669847440475    0.3333329859851446    0.3485358786727542    Cl1
    0.3333329854322145    0.6666669831836742    0.6514641213272458     O1
    0.3333329854322145    0.6666669831836742    0.5936495625584504     P1
    0.3333329854322145    0.6666669831836742    0.4184699517351158    Zr1
    0.6666669847440475    0.3333329859851446    0.5163444802729520    Zr2
