Zr-Zr-N-NO-PO
   1.000
    3.3353893761989641    0.0000000000000000    0.0000000000000000
   -1.6676946880994821    2.8885319312973641    0.0000000000000000
    0.0000000000000000    0.0000000000000000   26.4624636187183810
   N    O    P    Zr
    2    2    1    2
Direct
    0.0000000000000000    0.0000000000000000    0.5168644475827840     N1
    0.3333329854322145    0.6666669831836742    0.6096553026576945     N2
    0.3333329854322145    0.6666669831836742    0.6598956117738866     O1
    0.6666669847440475    0.3333329859851446    0.3401043882261134     O2
    0.6666669847440475    0.3333329859851446    0.3965079017847910     P1
    0.3333329854322145    0.6666669831836742    0.4700755893195944    Zr1
    0.6666669847440475    0.3333329859851446    0.5694346330863977    Zr2
