Zr-Zr-N-NCO-OH
   1.000
    3.3501765980338192    0.0000000000000000    0.0000000000000000
   -1.6750882990169096    2.9013380410640983    0.0000000000000000
    0.0000000000000000    0.0000000000000000   26.5619960472416921
   C    H    N    O    Zr
    1    1    2    2    2
Direct
    0.3333329854322144    0.6666669831836742    0.6157877246107488     C1
    0.6666669847440474    0.3333329859851445    0.3388299578086338     H1
    0.0000000000000000    0.0000000000000000    0.4697418939249267     N1
    0.3333329854322144    0.6666669831836742    0.5688479922285672     N2
    0.3333329854322144    0.6666669831836742    0.6611700421913662     O1
    0.6666669847440474    0.3333329859851445    0.3760576366997435     O2
    0.3333329854322144    0.6666669831836742    0.4259495753867488    Zr1
    0.6666669847440474    0.3333329859851445    0.5143504952284682    Zr2
