Zr-Zr-C-NCO-O
   1.000
    3.3348342013600440    0.0000000000000000    0.0000000000000000
   -1.6674171006800220    2.8880511357806742    0.0000000000000000
    0.0000000000000000    0.0000000000000000   25.5323498754044067
   C    N    O    Zr
    2    1    2    2
Direct
    0.0000000000000000    0.0000000000000000    0.4457297078030024     C1
    0.3333329854322145    0.6666669831836742    0.6003221797110971     C2
    0.3333329854322145    0.6666669831836742    0.5514672673020546     N1
    0.3333329854322145    0.6666669831836742    0.6475060053649900     O1
    0.6666669847440474    0.3333329859851446    0.3524939946350100     O2
    0.3333329854322145    0.6666669831836742    0.3898819440087168    Zr1
    0.6666669847440474    0.3333329859851446    0.4947108399249615    Zr2
