Sc-Sc-C-SCN-F
   1.000
    3.4575727812226322    0.0000000000000000    0.0000000000000000
   -1.7287863906113161    2.9943458639688942    0.0000000000000000
    0.0000000000000000    0.0000000000000000   26.0338854868792282
   C    F    N    S    Sc
    2    1    1    1    2
Direct
    0.0000000000000000    0.0000000000000000    0.4345356751888502     C1
    0.3333329854322145    0.6666669831836742    0.6085752781807543     C2
    0.6666669847440474    0.3333329859851446    0.3457032952125374     F1
    0.3333329854322145    0.6666669831836742    0.6542967047874626     N1
    0.3333329854322145    0.6666669831836742    0.5444187899043751     S1
    0.3333329854322145    0.6666669831836742    0.3865772378820560    Sc1
    0.6666669847440474    0.3333329859851446    0.4809879775365892    Sc2
