Y-Y-N-CN-Cl
   1.000
    3.6048769081052723    0.0000000000000000    0.0000000000000000
   -1.8024384540526361    3.1219149799452026    0.0000000000000000
    0.0000000000000000    0.0000000000000000   25.1072088014026207
   C    Cl   N    Y 
    1    1    2    2
Direct
    0.3333329854322146    0.6666669831836743    0.5937193480506128     C1
    0.6666669847440474    0.3333329859851447    0.3584627853772903    Cl1
    0.0000000000000000    0.0000000000000000    0.4807501724078755     N1
    0.3333329854322146    0.6666669831836743    0.6415372146227097     N2
    0.3333329854322146    0.6666669831836743    0.4294856754871336     Y1
    0.6666669847440474    0.3333329859851447    0.5344283984960259     Y2
