Y-Y-C-NCS-H
   1.000
    3.6441839356195755    0.0000000000000000    0.0000000000000000
   -1.8220919678097878    3.1559558643131864    0.0000000000000000
    0.0000000000000000    0.0000000000000000   25.9777758530851060
   C    H    N    S    Y 
    2    1    1    1    2
Direct
    0.0000000000000000    0.0000000000000000    0.4393576357325833     C1
    0.3333329854322145    0.6666669831836742    0.5934737643879133     C2
    0.6666669847440475    0.3333329859851446    0.3464499828968678     H1
    0.3333329854322145    0.6666669831836742    0.5455114431330960     N1
    0.3333329854322145    0.6666669831836742    0.6535500171031323     S1
    0.3333329854322145    0.6666669831836742    0.3870061143652482     Y1
    0.6666669847440475    0.3333329859851446    0.4921197644480766     Y2
