Zr-Zr-N-NO-SCN
   1.000
    3.4352142681000446    0.0000000000000000    0.0000000000000000
   -1.7176071340500223    2.9749828236015277    0.0000000000000000
    0.0000000000000000    0.0000000000000000   27.4715930471753964
   C    N    O    S    Zr
    1    3    1    1    2
Direct
    0.6666669847440475    0.3333329859851446    0.3709601124225745     C1
    0.0000000000000000    0.0000000000000000    0.5377208538920454     N1
    0.3333329854322145    0.6666669831836742    0.6241834508794133     N2
    0.6666669847440475    0.3333329859851446    0.3276111430649404     N3
    0.3333329854322145    0.6666669831836742    0.6723888569350596     O1
    0.6666669847440475    0.3333329859851446    0.4324369007484485     S1
    0.3333329854322145    0.6666669831836742    0.4942064077410071    Zr1
    0.6666669847440475    0.3333329859851446    0.5851238083140847    Zr2
