Zr-Zr-C-SCN-Br
   1.000
    3.5486741136963675    0.0000000000000000    0.0000000000000000
   -1.7743370568481838    3.0732419322062552    0.0000000000000000
    0.0000000000000000    0.0000000000000000   26.8504335706539514
   Br   C    N    S    Zr
    1    2    1    1    2
Direct
    0.6666669847440473    0.3333329859851447    0.3351901181155043    Br1
    0.0000000000000000    0.0000000000000000    0.4500859276833282     C1
    0.3333329854322146    0.6666669831836743    0.6204686481372548     C2
    0.3333329854322146    0.6666669831836743    0.6648098818844956     N1
    0.3333329854322146    0.6666669831836743    0.5577851485450652     S1
    0.3333329854322146    0.6666669831836743    0.4076881293532195    Zr1
    0.6666669847440473    0.3333329859851447    0.4955646554304517    Zr2
