Y-Y-N-OCl-F
   1.000
    3.5507154119006201    0.0000000000000000    0.0000000000000000
   -1.7753577059503101    3.0750097483166310    0.0000000000000000
    0.0000000000000000    0.0000000000000000   26.4916255678688870
   Cl   F    N    O    Y 
    1    1    1    1    2
Direct
    0.3333329854322144    0.6666669831836741    0.6602699982700984    Cl1
    0.6666669847440474    0.3333329859851446    0.3397300017299015     F1
    0.0000000000000000    0.0000000000000000    0.4271602696999663     N1
    0.3333329854322144    0.6666669831836741    0.5189530942098529     O1
    0.3333329854322144    0.6666669831836741    0.3854139461686380     Y1
    0.6666669847440474    0.3333329859851446    0.4935722378720024     Y2
