Ti-Ti-C-CN-CN
   1.000
    3.1720010193049646    0.0000000000000000    0.0000000000000000
   -1.5860005096524823    2.7470334635460447    0.0000000000000000
    0.0000000000000000    0.0000000000000000   25.4701502365975045
   C    N    Ti
    3    2    2
Direct
    0.0000000000000000    0.0000000000000000    0.5000000367243596     C1
    0.3333329854322145    0.6666669831836742    0.5994063353096872     C2
    0.6666669847440474    0.3333329859851446    0.4005936652343776     C3
    0.3333329854322145    0.6666669831836742    0.6466451938289670     N1
    0.6666669847440474    0.3333329859851446    0.3533548061710329     N2
    0.3333329854322145    0.6666669831836742    0.4554956201276575    Ti1
    0.6666669847440474    0.3333329859851446    0.5445043798723331    Ti2
