Sc-Sc-C-Cl-OCN
   1.000
    3.4089101059463585    0.0000000000000000    0.0000000000000000
   -1.7044550529731792    2.9522027509404816    0.0000000000000000
    0.0000000000000000    0.0000000000000000   25.9028262278419703
   C    Cl   N    O    Sc
    2    1    1    1    2
Direct
    0.0000000000000000    0.0000000000000000    0.5397430588977341     C1
    0.6666669847440473    0.3333329859851446    0.3933355590604403     C2
    0.3333329854322145    0.6666669831836742    0.6525475667853480    Cl1
    0.6666669847440473    0.3333329859851446    0.3474524332146520     N1
    0.6666669847440473    0.3333329859851446    0.4449294201204518     O1
    0.3333329854322145    0.6666669831836742    0.4917071329632400    Sc1
    0.6666669847440473    0.3333329859851446    0.5876042467908525    Sc2
