 Sc-Sc-C-Cl-Br                          
   1.0000000000000000     
     3.4657513423551563   -0.0000000000000001    0.0000000000000001
    -1.7328756711775777    3.0014287056796696   -0.0000000000000000
     0.0000000000000018    0.0000000000000030   29.0197607831129929
   C    Br   Cl   Sc
     1     1     1     2
Direct
  0.0000000000000000  0.0000000000000000  0.5044031809710117
 -0.0000000000000000 -0.0000000000000000  0.3947074826493186
  0.3333329854322145  0.6666669831836742  0.6036623214123791
  0.3333329854322145  0.6666669831836742  0.4609726882365959
  0.6666669847440474  0.3333329859851446  0.5462401067867360

  0.00000000E+00  0.00000000E+00  0.00000000E+00
  0.00000000E+00  0.00000000E+00  0.00000000E+00
  0.00000000E+00  0.00000000E+00  0.00000000E+00
  0.00000000E+00  0.00000000E+00  0.00000000E+00
  0.00000000E+00  0.00000000E+00  0.00000000E+00
