Zr-Zr-C-NCS-SCN
   1.000
    3.4978816018894920    0.0000000000000000    0.0000000000000000
   -1.7489408009447460    3.0292543266669791    0.0000000000000000
    0.0000000000000000    0.0000000000000000   29.1630296805335085
   C    N    S    Zr
    3    2    2    2
Direct
    0.0000000000000000    0.0000000000000000    0.5074034994197598     C1
    0.3333329854322145    0.6666669831836742    0.6380557666119375     C2
    0.6666669847440474    0.3333329859851446    0.3494341418330305     C3
    0.3333329854322145    0.6666669831836742    0.5951399127278327     N1
    0.6666669847440474    0.3333329859851446    0.3086099111988887     N2
    0.3333329854322145    0.6666669831836742    0.6913900888011113     S1
    0.6666669847440474    0.3333329859851446    0.4070817938954888     S2
    0.3333329854322145    0.6666669831836742    0.4650824669897904    Zr1
    0.6666669847440474    0.3333329859851446    0.5476654360309596    Zr2
