Y-Y-C-NCS-Br
   1.000
    3.7260330025020942    0.0000000000000000    0.0000000000000000
   -1.8630165012510471    3.2268392355390136    0.0000000000000000
    0.0000000000000000    0.0000000000000000   26.8216367255948143
   Br   C    N    S    Y 
    1    2    1    1    2
Direct
    0.6666669847440474    0.3333329859851447    0.3355499924212925    Br1
    0.0000000000000000    0.0000000000000000    0.4585146745089561     C1
    0.3333329854322145    0.6666669831836742    0.6062221347493995     C2
    0.3333329854322145    0.6666669831836742    0.5597311264135985     N1
    0.3333329854322145    0.6666669831836742    0.6644500075787074     S1
    0.3333329854322145    0.6666669831836742    0.4085932950241303     Y1
    0.6666669847440474    0.3333329859851447    0.5092782484741896     Y2
