Ti-Ti-N-NO-OH
   1.000
    3.1133956587476317    0.0000000000000000    0.0000000000000000
   -1.5566978293738158    2.6962797325077834    0.0000000000000000
    0.0000000000000000    0.0000000000000000   24.9624611072699061
   H    N    O    Ti
    1    2    2    2
Direct
    0.6666669847440474    0.3333329859851446    0.3605413729569676     H1
    0.0000000000000000    0.0000000000000000    0.4930090461266143     N1
    0.3333329854322145    0.6666669831836742    0.5874978048254978     N2
    0.3333329854322145    0.6666669831836742    0.6394586270430325     O1
    0.6666669847440474    0.3333329859851446    0.4001123658090958     O2
    0.3333329854322145    0.6666669831836742    0.4506376458085414    Ti1
    0.6666669847440474    0.3333329859851446    0.5409308347864683    Ti2
