Zr-Zr-N-F-H
   1.000
    3.3567571329904156    0.0000000000000000    0.0000000000000000
   -1.6783785664952078    2.9070369515014631    0.0000000000000000
    0.0000000000000000    0.0000000000000000   22.6552046690465296
   F    H    N    Zr
    1    1    1    2
Direct
    0.3333329854322145    0.6666669831836741    0.6027402916250602     F1
    0.6666669847440474    0.3333329859851445    0.3972597083749398     H1
    0.0000000000000000    0.0000000000000000    0.4948413673933639     N1
    0.3333329854322145    0.6666669831836741    0.4417085065522907    Zr1
    0.6666669847440474    0.3333329859851445    0.5445209849323850    Zr2
