Zr-Zr-C-NO-NO
   1.000
    3.3697063470963187    0.0000000000000000    0.0000000000000000
   -1.6848531735481593    2.9182512998768191    0.0000000000000000
    0.0000000000000000    0.0000000000000000   25.7009193440429478
   C    N    O    Zr
    1    2    2    2
Direct
    0.0000000000000000    0.0000000000000000    0.5000000320103652     C1
    0.3333329854322144    0.6666669831836742    0.5989202984298274     N1
    0.6666669847440475    0.3333329859851446    0.4010797015701723     N2
    0.3333329854322144    0.6666669831836742    0.6498179742318808     O1
    0.6666669847440475    0.3333329859851446    0.3501820257681192     O2
    0.3333329854322144    0.6666669831836742    0.4485585307453268    Zr1
    0.6666669847440475    0.3333329859851446    0.5514414687768977    Zr2
