 La-La-C-O-H                            
   1.0000000000000000     
     3.8760026331382318   -0.0000000000000011    0.0000000000000002
    -1.9380013165691179    3.3567167454364171    0.0000000000000001
     0.0000000000000036    0.0000000000000051   23.2017371034017579
   C    H    O    La
     1     1     1     2
Direct
 -0.0000000000000000  0.0000000000000000  0.4911776710477669
  0.6666669847440474  0.3333329859851446  0.3905311865009271
  0.3333329854322145  0.6666669831836742  0.6027910403721524
  0.3333329854322145  0.6666669831836742  0.4400366779169860
  0.6666669847440474  0.3333329859851446  0.5765386632343897

  0.00000000E+00  0.00000000E+00  0.00000000E+00
  0.00000000E+00  0.00000000E+00  0.00000000E+00
  0.00000000E+00  0.00000000E+00  0.00000000E+00
  0.00000000E+00  0.00000000E+00  0.00000000E+00
  0.00000000E+00  0.00000000E+00  0.00000000E+00
