Ti-Ti-N-OCl-OCN
   1.000
    3.0849283216771486    0.0000000000000000    0.0000000000000000
   -1.5424641608385743    2.6716262954264556    0.0000000000000000
    0.0000000000000000    0.0000000000000000   30.3956655873561843
   C    Cl   N    O    Ti
    1    1    2    2    2
Direct
    0.6666669847440474    0.3333329859851446    0.3351432233921083     C1
    0.3333329854322145    0.6666669831836742    0.7039051514060686    Cl1
    0.0000000000000000    0.0000000000000000    0.4584667917741241     N1
    0.6666669847440474    0.3333329859851446    0.2960948485939314     N2
    0.3333329854322145    0.6666669831836742    0.5300547205346460     O1
    0.6666669847440474    0.3333329859851446    0.3791841055640186     O2
    0.3333329854322145    0.6666669831836742    0.4220939937454518    Ti1
    0.6666669847440474    0.3333329859851446    0.5003718871517753    Ti2
