Hf-Hf-N-O-OH
   1.000
    3.2102959922017678    0.0000000000000000    0.0000000000000000
   -1.6051479961008837    2.7801978829529030    0.0000000000000000
    0.0000000000000000    0.0000000000000000   23.9052535366118803
   H    Hf   N    O 
    1    2    1    2
Direct
    0.6666669847440473    0.3333329859851446    0.3764862809848944     H1
    0.3333329854322145    0.6666669831836742    0.4742453192390410    Hf1
    0.6666669847440474    0.3333329859851446    0.5820358251732407    Hf2
    0.0000000000000000    0.0000000000000000    0.5281299674058750     N1
    0.3333329854322145    0.6666669831836742    0.6235137190151057     O1
    0.6666669847440474    0.3333329859851446    0.4183610709241163     O2
