Zr-Zr-C-OCl-NCS
   1.000
    3.3505564438896163    0.0000000000000000    0.0000000000000000
   -1.6752782219448081    2.9016669972199156    0.0000000000000000
    0.0000000000000000    0.0000000000000000   29.2014613373964700
   C    Cl   N    O    S    Zr
    2    1    1    1    1    2
Direct
    0.0000000000000000    0.0000000000000000    0.4946248363812378     C1
    0.6666669847440474    0.3333329859851446    0.3613133360756400     C2
    0.3333329854322145    0.6666669831836742    0.6917962462216141    Cl1
    0.6666669847440474    0.3333329859851446    0.4044239626997645     N1
    0.3333329854322145    0.6666669831836742    0.5742532732420924     O1
    0.6666669847440474    0.3333329859851446    0.3082037537783859     S1
    0.3333329854322145    0.6666669831836742    0.4513102253880834    Zr1
    0.6666669847440474    0.3333329859851446    0.5442717686160109    Zr2
