Ti-Ti-C-NCS-OH
   1.000
    3.1748298589063806    0.0000000000000000    0.0000000000000000
   -1.5874149294531903    2.7494833104921361    0.0000000000000000
    0.0000000000000000    0.0000000000000000   26.5733842278734862
   C    H    N    O    S    Ti
    2    1    1    1    1    2
Direct
    0.0000000000000000    0.0000000000000000    0.4644064874505788     C1
    0.3333329854322145    0.6666669831836742    0.6029830173538461     C2
    0.6666669847440473    0.3333329859851446    0.3386847502306339     H1
    0.3333329854322145    0.6666669831836742    0.5558275904643335     N1
    0.6666669847440473    0.3333329859851446    0.3757689043687606     O1
    0.3333329854322145    0.6666669831836742    0.6613152497693661     S1
    0.3333329854322145    0.6666669831836742    0.4227491792536285    Ti1
    0.6666669847440473    0.3333329859851446    0.5075161572050283    Ti2
