Hf-Hf-N-NO-F
   1.000
    3.3181562549210999    0.0000000000000000    0.0000000000000000
   -1.6590781274605499    2.8736076104881310    0.0000000000000000
    0.0000000000000000    0.0000000000000000   24.2063633954869815
   F    Hf   N    O 
    1    2    2    1
Direct
    0.6666669847440474    0.3333329859851446    0.3718030607471568     F1
    0.3333329854322145    0.6666669831836743    0.4266017435762726    Hf1
    0.6666669847440474    0.3333329859851446    0.5256143320343547    Hf2
    0.0000000000000000    0.0000000000000000    0.4705881020621259     N1
    0.3333329854322145    0.6666669831836743    0.5730314424168939     N2
    0.3333329854322145    0.6666669831836743    0.6281969392528433     O1
