Hf-Hf-N-NCS-NCS
   1.000
    3.3500053121642805    0.0000000000000000    0.0000000000000000
   -1.6750026560821403    2.9011897031081539    0.0000000000000000
    0.0000000000000000    0.0000000000000000   28.6169486268019782
   C    Hf   N    S 
    2    2    3    2
Direct
    0.3333329854322144    0.6666669831836742    0.6313409466450897     C1
    0.6666669847440473    0.3333329859851446    0.3686590533549114     C2
    0.3333329854322144    0.6666669831836742    0.4597330087912837    Hf1
    0.6666669847440473    0.3333329859851446    0.5402669912087095    Hf2
    0.0000000000000000    0.0000000000000000    0.5000000293047528     N1
    0.3333329854322144    0.6666669831836742    0.5871535906230259     N2
    0.6666669847440473    0.3333329859851446    0.4128464098111194     N3
    0.3333329854322144    0.6666669831836742    0.6855010603202185     S1
    0.6666669847440473    0.3333329859851446    0.3144989396797814     S2
