Zr-Zr-C-Br-H
   1.000
    3.4175417684083769    0.0000000000000000    0.0000000000000000
   -1.7087708842041884    2.9596779899313179    0.0000000000000000
    0.0000000000000000    0.0000000000000000   23.4170824665528023
   Br   C    H    Zr
    1    1    1    2
Direct
    0.3333329854322145    0.6666669831836742    0.6156651874606958    Br1
    0.0000000000000000    0.0000000000000000    0.4795352740286534     C1
    0.6666669847440475    0.3333329859851446    0.3843348125393042     H1
    0.3333329854322145    0.6666669831836742    0.4263033091275406    Zr1
    0.6666669847440475    0.3333329859851446    0.5310224465954281    Zr2
