Sc-Sc-N-PO-OH
   1.000
    3.2465610622968417    0.0000000000000000    0.0000000000000000
   -1.6232805311484209    2.8116043548841039    0.0000000000000000
    0.0000000000000000    0.0000000000000000   26.1253017591217969
   H    N    O    P    Sc
    1    1    2    1    2
Direct
    0.6666669847440473    0.3333329859851446    0.3444936285513946     H1
    0.0000000000000000    0.0000000000000000    0.4753100461934591     N1
    0.3333329854322145    0.6666669831836742    0.6555063714486054     O1
    0.6666669847440473    0.3333329859851446    0.3821753792696349     O2
    0.3333329854322145    0.6666669831836742    0.5983300335358215     P1
    0.3333329854322145    0.6666669831836742    0.4294492161932332    Sc1
    0.6666669847440473    0.3333329859851446    0.5224950008438440    Sc2
