Ti-Ti-C-Cl-H
   1.000
    3.1515466482592873    0.0000000000000000    0.0000000000000000
   -1.5757733241296437    2.7293194586009704    0.0000000000000000
    0.0000000000000000    0.0000000000000000   22.8822815722566233
   C    Cl   H    Ti
    1    1    1    2
Direct
    0.0000000000000000    0.0000000000000000    0.4839917929872405     C1
    0.3333329854322146    0.6666669831836742    0.6066825778897873    Cl1
    0.6666669847440475    0.3333329859851446    0.3933174221102127     H1
    0.3333329854322146    0.6666669831836742    0.4346478515683223    Ti1
    0.6666669847440475    0.3333329859851446    0.5326165025377096    Ti2
