Y-Y-C-NCS-F
   1.000
    3.6389392666741887    0.0000000000000000    0.0000000000000000
   -1.8194696333370943    3.1514138477715310    0.0000000000000000
    0.0000000000000000    0.0000000000000000   26.0876128929761890
   C    F    N    S    Y 
    2    1    1    1    2
Direct
    0.0000000000000000    0.0000000000000000    0.4416677982242793     C1
    0.3333329854322145    0.6666669831836742    0.5951885846449088     C2
    0.6666669847440474    0.3333329859851446    0.3449913197087938     F1
    0.3333329854322145    0.6666669831836742    0.5474351921252624     N1
    0.3333329854322145    0.6666669831836742    0.6550086802912062     S1
    0.3333329854322145    0.6666669831836742    0.3892095956074833     Y1
    0.6666669847440474    0.3333329859851446    0.4940540017161628     Y2
