Ti-Ti-C-Cl-OH
   1.000
    3.1767467956767907    0.0000000000000000    0.0000000000000000
   -1.5883733978383954    2.7511434264290098    0.0000000000000000
    0.0000000000000000    0.0000000000000000   24.1526738140289545
   C    Cl   H    O    Ti
    1    1    1    1    2
Direct
    0.0000000000000000    0.0000000000000000    0.5112942434986303     C1
    0.3333329854322145    0.6666669831836742    0.6273704489491181    Cl1
    0.6666669847440474    0.3333329859851446    0.3726295510508819     H1
    0.6666669847440474    0.3333329859851446    0.4134443111802424     O1
    0.3333329854322145    0.6666669831836742    0.4651070308041086    Ti1
    0.6666669847440474    0.3333329859851446    0.5570250593812125    Ti2
