Y-Y-N-OCl-NCS
   1.000
    3.7357106195986249    0.0000000000000000    0.0000000000000000
   -1.8678553097993125    3.2352202977423907    0.0000000000000000
    0.0000000000000000    0.0000000000000000   27.3745145839342001
   C    Cl   N    O    S    Y 
    1    1    2    1    1    2
Direct
    0.6666669847440474    0.3333329859851445    0.3859750404365728     C1
    0.3333329854322145    0.6666669831836742    0.6712270468795088    Cl1
    0.0000000000000000    0.0000000000000000    0.5105325414869749     N1
    0.6666669847440474    0.3333329859851445    0.4313261900144340     N2
    0.3333329854322145    0.6666669831836742    0.5731410637090727     O1
    0.6666669847440474    0.3333329859851445    0.3287729531204912     S1
    0.3333329854322145    0.6666669831836742    0.4846593794410000     Y1
    0.6666669847440474    0.3333329859851445    0.5985927713463445     Y2
