Sc-Sc-N-NCS-Cl
   1.000
    3.3667242491039771    0.0000000000000000    0.0000000000000000
   -1.6833621245519885    2.9156687272481117    0.0000000000000000
    0.0000000000000000    0.0000000000000000   26.1727507423371151
   C    Cl   N    S    Sc
    1    1    2    1    2
Direct
    0.3333329854322145    0.6666669831836742    0.5967811079565767     C1
    0.6666669847440474    0.3333329859851446    0.3438690907425934    Cl1
    0.0000000000000000    0.0000000000000000    0.4533859403729312     N1
    0.3333329854322145    0.6666669831836742    0.5489437464129712     N2
    0.3333329854322145    0.6666669831836742    0.6561309092574066     S1
    0.3333329854322145    0.6666669831836742    0.4085802951515977    Sc1
    0.6666669847440474    0.3333329859851446    0.5005495206873105    Sc2
