Zr-Zr-N-NCO-O
   1.000
    3.2873732071099844    0.0000000000000000    0.0000000000000000
   -1.6436866035549922    2.8469487090695016    0.0000000000000000
    0.0000000000000000    0.0000000000000000   25.5107975811788457
   C    N    O    Zr
    1    2    2    2
Direct
    0.3333329854322146    0.6666669831836742    0.5999745907444833     C1
    0.0000000000000000    0.0000000000000000    0.4423808139212284     N1
    0.3333329854322146    0.6666669831836742    0.5510501250747970     N2
    0.3333329854322146    0.6666669831836742    0.6472082077653287     O1
    0.6666669847440474    0.3333329859851446    0.3527917922346712     O2
    0.3333329854322146    0.6666669831836742    0.3912643831378108    Zr1
    0.6666669847440474    0.3333329859851446    0.4937863311118526    Zr2
