Zr-Zr-N-NCO-Br
   1.000
    3.4457626601115581    0.0000000000000000    0.0000000000000000
   -1.7228813300557790    2.9841179990687547    0.0000000000000000
    0.0000000000000000    0.0000000000000000   26.1143263059257080
   Br   C    N    O    Zr
    1    1    2    1    2
Direct
    0.6666669847440473    0.3333329859851446    0.3446384139711762    Br1
    0.3333329854322145    0.6666669831836742    0.6091963466122303     C1
    0.0000000000000000    0.0000000000000000    0.4641558471903984     N1
    0.3333329854322145    0.6666669831836742    0.5614154500885362     N2
    0.3333329854322145    0.6666669831836742    0.6553615860288238     O1
    0.3333329854322145    0.6666669831836742    0.4199998347110679    Zr1
    0.6666669847440473    0.3333329859851446    0.5071053910007093    Zr2
