Hf-Hf-C-SCN-F
   1.000
    3.4259306792815583    0.0000000000000000    0.0000000000000000
   -1.7129653396407791    2.9669429998458323    0.0000000000000000
    0.0000000000000000    0.0000000000000000   26.1738221481096325
   C    F    Hf   N    S 
    2    1    2    1    1
Direct
    0.0000000000000000    0.0000000000000000    0.4344505117922615     C1
    0.3333329854322145    0.6666669831836742    0.6106716744757941     C2
    0.6666669847440474    0.3333329859851446    0.3438550147193544     F1
    0.3333329854322145    0.6666669831836742    0.3930045627103615    Hf1
    0.6666669847440474    0.3333329859851446    0.4828666009637683    Hf2
    0.3333329854322145    0.6666669831836742    0.6561449852806456     N1
    0.3333329854322145    0.6666669831836742    0.5460715124662905     S1
