Hf-Hf-N-OCl-PO
   1.000
    3.2026065006993543    0.0000000000000000    0.0000000000000000
   -1.6013032503496771    2.7735385879306342    0.0000000000000000
    0.0000000000000000    0.0000000000000000   28.3543376343801121
   Cl   Hf   N    O    P 
    1    2    1    2    1
Direct
    0.3333329854322145    0.6666669831836742    0.6825882474825528    Cl1
    0.3333329854322145    0.6666669831836742    0.4384464891429936    Hf1
    0.6666669847440474    0.3333329859851446    0.5331140623903714    Hf2
    0.0000000000000000    0.0000000000000000    0.4871420204055016     N1
    0.3333329854322145    0.6666669831836742    0.5653328602358429     O1
    0.6666669847440474    0.3333329859851446    0.3174117525174472     O2
    0.6666669847440474    0.3333329859851446    0.3699734260059582     P1
