Sc-Sc-N-NO-NCS
   1.000
    3.3501008064118607    0.0000000000000000    0.0000000000000000
   -1.6750504032059303    2.9012724035815141    0.0000000000000000
    0.0000000000000000    0.0000000000000000   26.9941284183899839
   C    N    O    S    Sc
    1    3    1    1    2
Direct
    0.6666669847440474    0.3333329859851446    0.3909504835480708     C1
    0.0000000000000000    0.0000000000000000    0.5260569801752291     N1
    0.3333329854322144    0.6666669831836742    0.6176058443461409     N2
    0.6666669847440474    0.3333329859851446    0.4371354285184366     N3
    0.3333329854322144    0.6666669831836742    0.6665941622375675     O1
    0.6666669847440474    0.3333329859851446    0.3334058377624325     S1
    0.3333329854322144    0.6666669831836742    0.4863689455926439    Sc1
    0.6666669847440474    0.3333329859851446    0.5812229673301272    Sc2
