Hf-Hf-N-O-Br
   1.000
    3.2780804887149704    0.0000000000000000    0.0000000000000000
   -1.6390402443574852    2.8389009788694417    0.0000000000000000
    0.0000000000000000    0.0000000000000000   23.5113466199185943
   Br   Hf   N    O 
    1    2    1    1
Direct
    0.6666669847440474    0.3333329859851446    0.3827938971549713    Br1
    0.3333329854322144    0.6666669831836742    0.4671864878262638    Hf1
    0.6666669847440474    0.3333329859851446    0.5765419618806009    Hf2
    0.0000000000000000    0.0000000000000000    0.5237318563248501     N1
    0.3333329854322144    0.6666669831836742    0.6172061028450286     O1
