Ti-Ti-N-NO-Br
   1.000
    3.2264337649906643    0.0000000000000000    0.0000000000000000
   -1.6132168824953321    2.7941736041086247    0.0000000000000000
    0.0000000000000000    0.0000000000000000   24.4271635623904508
   Br   N    O    Ti
    1    2    1    2
Direct
    0.6666669847440475    0.3333329859851446    0.3684422866786281    Br1
    0.0000000000000000    0.0000000000000000    0.4850056037895636     N1
    0.3333329854322145    0.6666669831836742    0.5778646518636410     N2
    0.3333329854322145    0.6666669831836742    0.6315577133213719     O1
    0.3333329854322145    0.6666669831836742    0.4459739777209056    Ti1
    0.6666669847440475    0.3333329859851446    0.5381130582556404    Ti2
