Ti-Ti-N-OCl-PO
   1.000
    3.0586171629149419    0.0000000000000000    0.0000000000000000
   -1.5293085814574710    2.6488401635369963    0.0000000000000000
    0.0000000000000000    0.0000000000000000   28.9420498621019426
   Cl   N    O    P    Ti
    1    1    2    1    2
Direct
    0.3333329854322146    0.6666669831836742    0.6890337746330464    Cl1
    0.0000000000000000    0.0000000000000000    0.4665172355500919     N1
    0.3333329854322146    0.6666669831836742    0.5412245813139313     O1
    0.6666669847440475    0.3333329859851447    0.3109662253669536     O2
    0.6666669847440475    0.3333329859851447    0.3624177557021859     P1
    0.3333329854322146    0.6666669831836742    0.4260777402896132    Ti1
    0.6666669847440475    0.3333329859851447    0.5102370120638731    Ti2
