Zr-Zr-C-OCl-OCl
   1.000
    3.2940091327753853    0.0000000000000000    0.0000000000000000
   -1.6470045663876927    2.8526955892807693    0.0000000000000000
    0.0000000000000000    0.0000000000000000   30.0194598707894649
   C    Cl   O    Zr
    1    2    2    2
Direct
    0.0000000000000000    0.0000000000000000    0.5000000286794613     C1
    0.3333329854322145    0.6666669831836743    0.7001944725608644    Cl1
    0.6666669847440473    0.3333329859851446    0.2998055274391355    Cl2
    0.3333329854322145    0.6666669831836743    0.5777880146783350     O1
    0.6666669847440473    0.3333329859851446    0.4222119853216730     O2
    0.3333329854322145    0.6666669831836743    0.4524154386258884    Zr1
    0.6666669847440473    0.3333329859851446    0.5475845609460601    Zr2
