Sc-Sc-C-SCN-H
   1.000
    3.4498978718454514    0.0000000000000000    0.0000000000000000
   -1.7249489359227257    2.9876991974799090    0.0000000000000000
    0.0000000000000000    0.0000000000000000   25.9187357308274962
   C    H    N    S    Sc
    2    1    1    1    2
Direct
    0.0000000000000000    0.0000000000000000    0.4314416622108439     C1
    0.3333329854322145    0.6666669831836742    0.6068325605761380     C2
    0.6666669847440474    0.3333329859851446    0.3472391590958461     H1
    0.3333329854322145    0.6666669831836742    0.6527608409041539     N1
    0.3333329854322145    0.6666669831836742    0.5423772160131395     S1
    0.3333329854322145    0.6666669831836742    0.3840533988852994    Sc1
    0.6666669847440474    0.3333329859851446    0.4785943865964387    Sc2
