 La-La-C-F-F                            
   1.0000000000000000     
     3.8650487809821503    0.0000000000000015    0.0000000000000003
    -1.9325243904910732    3.3472304311971395    0.0000000000000001
     0.0000000000000040    0.0000000000000048   23.3334345544439365
   C    F    La
     1     2     2
Direct
  0.0000000000000000  0.0000000000000000  0.5000000267999951
  0.3333329854322145  0.6666669831836742  0.6136294863981355
  0.6666669847440474  0.3333329859851446  0.3863705136018641
  0.3333329854322145  0.6666669831836742  0.4356918864338641
  0.6666669847440474  0.3333329859851446  0.5643081131661289

  0.00000000E+00  0.00000000E+00  0.00000000E+00
  0.00000000E+00  0.00000000E+00  0.00000000E+00
  0.00000000E+00  0.00000000E+00  0.00000000E+00
  0.00000000E+00  0.00000000E+00  0.00000000E+00
  0.00000000E+00  0.00000000E+00  0.00000000E+00
