Y-Y-N-PO-OCN
   1.000
    3.5339116287350150    0.0000000000000000    0.0000000000000000
   -1.7669558143675075    3.0604572452018863    0.0000000000000000
    0.0000000000000000    0.0000000000000000   28.0608842910053866
   C    N    O    P    Y 
    1    2    2    1    2
Direct
    0.6666669847440474    0.3333329859851446    0.3630942881293164     C1
    0.0000000000000000    0.0000000000000000    0.5028723756751738     N1
    0.6666669847440474    0.3333329859851446    0.3207311610947646     N2
    0.3333329854322145    0.6666669831836742    0.6792688389052354     O1
    0.6666669847440474    0.3333329859851446    0.4107118312753278     O2
    0.3333329854322145    0.6666669831836742    0.6259606980244944     P1
    0.3333329854322145    0.6666669831836742    0.4578975042428493     Y1
    0.6666669847440474    0.3333329859851446    0.5518746734113695     Y2
