Y-Y-N-OH-OH
   1.000
    3.5051855794252487    0.0000000000000000    0.0000000000000000
   -1.7525927897126243    3.0355797567600638    0.0000000000000000
    0.0000000000000000    0.0000000000000000   25.2560312208660953
   H    N    O    Y 
    2    1    2    2
Direct
    0.3333329854322145    0.6666669831836743    0.6436494744049748     H1
    0.6666669847440475    0.3333329859851445    0.3563505255950252     H2
    0.0000000000000000    0.0000000000000000    0.5000000301048397     N1
    0.3333329854322145    0.6666669831836743    0.6045137901762105     O1
    0.6666669847440475    0.3333329859851445    0.3954862098237970     O2
    0.3333329854322145    0.6666669831836743    0.4465944408758040     Y1
    0.6666669847440475    0.3333329859851445    0.5534055586748697     Y2
