Sc-Sc-C-SCN-Br
   1.000
    3.5550579604705734    0.0000000000000000    0.0000000000000000
   -1.7775289802352867    3.0787705056821388    0.0000000000000000
    0.0000000000000000    0.0000000000000000   26.7221935784136271
   Br   C    N    S    Sc
    1    2    1    1    2
Direct
    0.6666669847440474    0.3333329859851447    0.3367986978161203    Br1
    0.0000000000000000    0.0000000000000000    0.4504468326558320     C1
    0.3333329854322145    0.6666669831836742    0.6186569924149818     C2
    0.3333329854322145    0.6666669831836742    0.6632013021838798     N1
    0.3333329854322145    0.6666669831836742    0.5560151256762159     S1
    0.3333329854322145    0.6666669831836742    0.4051837379318907    Sc1
    0.6666669847440474    0.3333329859851447    0.4955992258853814    Sc2
