Hf-Hf-N-OCl-Br
   1.000
    3.4197956512533163    0.0000000000000000    0.0000000000000000
   -1.7098978256266582    2.9616299097294410    0.0000000000000000
    0.0000000000000000    0.0000000000000000   25.3493142461097563
   Br   Cl   Hf   N    O 
    1    1    2    1    1
Direct
    0.6666669847440473    0.3333329859851446    0.3550391901185724    Br1
    0.3333329854322145    0.6666669831836742    0.6449608098814275    Cl1
    0.3333329854322145    0.6666669831836742    0.4355501199296407    Hf1
    0.6666669847440473    0.3333329859851446    0.5727035069312617    Hf2
    0.0000000000000000    0.0000000000000000    0.4573030198842438     N1
    0.3333329854322145    0.6666669831836742    0.5387549630122688     O1
