Ti-Ti-C-SCN-OH
   1.000
    3.2508012098298229    0.0000000000000000    0.0000000000000000
   -1.6254006049149115    2.8152764302895670    0.0000000000000000
    0.0000000000000000    0.0000000000000000   26.8610740399386003
   C    H    N    O    S    Ti
    2    1    1    1    1    2
Direct
    0.0000000000000000    0.0000000000000000    0.4580948663788521     C1
    0.3333329854322145    0.6666669831836742    0.6206101655939484     C2
    0.6666669847440474    0.3333329859851446    0.3350573393535299     H1
    0.3333329854322145    0.6666669831836742    0.6649426606464701     N1
    0.6666669847440474    0.3333329859851446    0.3717136506530589     O1
    0.3333329854322145    0.6666669831836742    0.5582318899564283     S1
    0.3333329854322145    0.6666669831836742    0.4182526272891951    Ti1
    0.6666669847440474    0.3333329859851446    0.4996054225129709    Ti2
