Zr-Zr-C-OH-OCN
   1.000
    3.3682253213343984    0.0000000000000000    0.0000000000000000
   -1.6841126606671992    2.9169686939346713    0.0000000000000000
    0.0000000000000000    0.0000000000000000   26.7199801975324824
   C    H    N    O    Zr
    2    1    1    2    2
Direct
    0.0000000000000000    0.0000000000000000    0.5292993612950738     C1
    0.6666669847440474    0.3333329859851447    0.3812855068906759     C2
    0.3333329854322145    0.6666669831836742    0.6631734030689467     H1
    0.6666669847440474    0.3333329859851447    0.3368265969310533     N1
    0.3333329854322145    0.6666669831836742    0.6262742581932345     O1
    0.6666669847440474    0.3333329859851447    0.4312234362368239     O2
    0.3333329854322145    0.6666669831836742    0.4837954644500577    Zr1
    0.6666669847440474    0.3333329859851447    0.5753536139002622    Zr2
