Hf-Hf-C-OCN-OCN
   1.000
    3.3432083001214803    0.0000000000000000    0.0000000000000000
   -1.6716041500607401    2.8953033180503081    0.0000000000000000
    0.0000000000000000    0.0000000000000000   28.1599967997281340
   C    Hf   N    O 
    3    2    2    2
Direct
    0.0000000000000000    0.0000000000000000    0.5000000296800020     C1
    0.3333329854322145    0.6666669831836741    0.6382216608736184     C2
    0.6666669847440473    0.3333329859851446    0.3617783386833962     C3
    0.3333329854322145    0.6666669831836741    0.4583306797348260    Hf1
    0.6666669847440473    0.3333329859851446    0.5416693198221809    Hf2
    0.3333329854322145    0.6666669831836741    0.6803976909511975     N1
    0.6666669847440473    0.3333329859851446    0.3196023090488025     N2
    0.3333329854322145    0.6666669831836741    0.5905989122750341     O1
    0.6666669847440473    0.3333329859851446    0.4094010877249658     O2
