Ti-Ti-N-SCN-O
   1.000
    3.1575307933732528    0.0000000000000000    0.0000000000000000
   -1.5787653966866264    2.7345018802930419    0.0000000000000000
    0.0000000000000000    0.0000000000000000   25.7162860270123730
   C    N    O    S    Ti
    1    2    1    1    2
Direct
    0.3333329854322145    0.6666669831836742    0.6037294796685719     C1
    0.0000000000000000    0.0000000000000000    0.4315280320191183     N1
    0.3333329854322145    0.6666669831836742    0.6500272243609981     N2
    0.6666669847440474    0.3333329859851446    0.3499727756390018     O1
    0.3333329854322145    0.6666669831836742    0.5382254923269716     S1
    0.3333329854322145    0.6666669831836742    0.3841572590775456    Ti1
    0.6666669847440474    0.3333329859851446    0.4770359823475391    Ti2
