Ti-Ti-C-OCl-O
   1.000
    3.0613948218035882    0.0000000000000000    0.0000000000000000
   -1.5306974109017941    2.6512456866872314    0.0000000000000000
    0.0000000000000000    0.0000000000000000   27.8282639944116141
   C    Cl   O    Ti
    1    1    2    2
Direct
    0.0000000000000000    0.0000000000000000    0.4025649363398296     C1
    0.3333329854322145    0.6666669831836742    0.6765878028968192    Cl1
    0.3333329854322145    0.6666669831836742    0.4816344176289631     O1
    0.6666669847440474    0.3333329859851446    0.3234121971031808     O2
    0.3333329854322145    0.6666669831836742    0.3555492571453340    Ti1
    0.6666669847440474    0.3333329859851446    0.4497710719212333    Ti2
