Y-Y-C-OCl-PO
   1.000
    3.6175138995352270    0.0000000000000000    0.0000000000000000
   -1.8087569497676135    3.1328589355293150    0.0000000000000000
    0.0000000000000000    0.0000000000000000   26.5708811223400225
   C    Cl   O    P    Y 
    1    1    2    1    2
Direct
    0.0000000000000000    0.0000000000000000    0.4225642449214319     C1
    0.3333329854322145    0.6666669831836742    0.6612833440275692    Cl1
    0.3333329854322145    0.6666669831836742    0.5545754149148157     O1
    0.6666669847440474    0.3333329859851446    0.3387166559724308     O2
    0.6666669847440474    0.3333329859851446    0.3944361452059162     P1
    0.3333329854322145    0.6666669831836742    0.4690141453259377     Y1
    0.6666669847440474    0.3333329859851446    0.5912389240604494     Y2
