Sc-Sc-N-CN-NO
   1.000
    3.3274424438350771    0.0000000000000000    0.0000000000000000
   -1.6637212219175386    2.8816496859887004    0.0000000000000000
    0.0000000000000000    0.0000000000000000   25.5442490253730519
   C    N    O    Sc
    1    3    1    2
Direct
    0.3333329854322145    0.6666669831836742    0.6007794475872377     C1
    0.0000000000000000    0.0000000000000000    0.5011383460821550     N1
    0.3333329854322145    0.6666669831836742    0.6476702058823371     N2
    0.6666669847440475    0.3333329859851446    0.4040044065260640     N3
    0.6666669847440475    0.3333329859851446    0.3523297941176630     O1
    0.3333329854322145    0.6666669831836742    0.4430355015649542    Sc1
    0.6666669847440475    0.3333329859851446    0.5430878226643728    Sc2
