Sc-Sc-C-OCl-NCS
   1.000
    3.4248496594565498    0.0000000000000000    0.0000000000000000
   -1.7124248297282749    2.9660068092334004    0.0000000000000000
    0.0000000000000000    0.0000000000000000   27.4317248958833488
   C    Cl   N    O    S    Sc
    2    1    1    1    1    2
Direct
    0.0000000000000000    0.0000000000000000    0.5223658821948112     C1
    0.6666669847440474    0.3333329859851446    0.3848200406897599     C2
    0.3333329854322145    0.6666669831836742    0.6719127202478390    Cl1
    0.6666669847440474    0.3333329859851446    0.4302598315428321     N1
    0.3333329854322145    0.6666669831836742    0.6081380334968539     O1
    0.6666669847440474    0.3333329859851446    0.3280872797521610     S1
    0.3333329854322145    0.6666669831836742    0.4776119137525044    Sc1
    0.6666669847440474    0.3333329859851446    0.5686444229687055    Sc2
