Ti-Ti-C-Br-H
   1.000
    3.2009091500376337    0.0000000000000000    0.0000000000000000
   -1.6004545750188168    2.7720686391328990    0.0000000000000000
    0.0000000000000000    0.0000000000000000   23.0092647144853899
   Br   C    H    Ti
    1    1    1    2
Direct
    0.3333329854322145    0.6666669831836742    0.6088532114486003    Br1
    0.0000000000000000    0.0000000000000000    0.4805102670713890     C1
    0.6666669847440474    0.3333329859851446    0.3911467885513998     H1
    0.3333329854322145    0.6666669831836742    0.4319603667748604    Ti1
    0.6666669847440474    0.3333329859851446    0.5281701073158860    Ti2
