Sc-Sc-C-OCl-OCN
   1.000
    3.3904367766404708    0.0000000000000000    0.0000000000000000
   -1.6952183883202354    2.9362043784836396    0.0000000000000000
    0.0000000000000000    0.0000000000000000   27.0989219800244854
   C    Cl   N    O    Sc
    2    1    1    2    2
Direct
    0.0000000000000000    0.0000000000000000    0.5158227975403407     C1
    0.6666669847440475    0.3333329859851445    0.3759707878596766     C2
    0.3333329854322145    0.6666669831836742    0.6678834675920245    Cl1
    0.6666669847440475    0.3333329859851445    0.3321165324079755     N1
    0.3333329854322145    0.6666669831836742    0.6036075798158659     O1
    0.6666669847440475    0.3333329859851445    0.4252584477039113     O2
    0.3333329854322145    0.6666669831836742    0.4704801310122756    Sc1
    0.6666669847440475    0.3333329859851445    0.5629432270872886    Sc2
