Zr-Zr-N-NO-Cl
   1.000
    3.3855063702328181    0.0000000000000000    0.0000000000000000
   -1.6927531851164090    2.9319345212876442    0.0000000000000000
    0.0000000000000000    0.0000000000000000   24.7438770115043454
   Cl   N    O    Zr
    1    2    1    2
Direct
    0.6666669847440474    0.3333329859851445    0.3637263471611812    Cl1
    0.0000000000000000    0.0000000000000000    0.4837083373440594     N1
    0.3333329854322145    0.6666669831836741    0.5829706752346667     N2
    0.3333329854322145    0.6666669831836741    0.6362736528388189     O1
    0.3333329854322145    0.6666669831836741    0.4376201015989364    Zr1
    0.6666669847440474    0.3333329859851445    0.5375403486594731    Zr2
