Sc-Sc-C-CN-PO
   1.000
    3.3807889957576061    0.0000000000000000    0.0000000000000000
   -1.6903944978788030    2.9278491551513102    0.0000000000000000
    0.0000000000000000    0.0000000000000000   26.6107362819414099
   C    N    O    P    Sc
    2    1    1    1    2
Direct
    0.0000000000000000    0.0000000000000000    0.5156164457490748     C1
    0.3333329854322145    0.6666669831836742    0.6167330251832133     C2
    0.3333329854322145    0.6666669831836742    0.6617906432710174     N1
    0.6666669847440473    0.3333329859851446    0.3382093567289826     O1
    0.6666669847440473    0.3333329859851446    0.3943719676045540     P1
    0.3333329854322145    0.6666669831836742    0.4706199076876076    Sc1
    0.6666669847440473    0.3333329859851446    0.5630307643569805    Sc2
