Sc-Sc-C-CN-NO
   1.000
    3.4005412656285019    0.0000000000000000    0.0000000000000000
   -1.7002706328142509    2.9449551226422725    0.0000000000000000
    0.0000000000000000    0.0000000000000000   25.6573717409045656
   C    N    O    Sc
    2    2    1    2
Direct
    0.0000000000000000    0.0000000000000000    0.4987682689710023     C1
    0.3333329854322145    0.6666669831836742    0.6024984792596739     C2
    0.3333329854322145    0.6666669831836742    0.6492236192044705     N1
    0.6666669847440474    0.3333329859851446    0.4009865488838694     N2
    0.6666669847440474    0.3333329859851446    0.3507763807955296     O1
    0.3333329854322145    0.6666669831836742    0.4492913687614213    Sc1
    0.6666669847440474    0.3333329859851446    0.5468749044547629    Sc2
