Sc-Sc-C-OCl-F
   1.000
    3.2918940542531177    0.0000000000000000    0.0000000000000000
   -1.6459470271265588    2.8508638775491431    0.0000000000000000
    0.0000000000000000    0.0000000000000000   26.4895023685508697
   C    Cl   F    O    Sc
    1    1    1    1    2
Direct
    0.0000000000000000    0.0000000000000000    0.4297001419145504     C1
    0.3333329854322145    0.6666669831836743    0.6602427680678113    Cl1
    0.6666669847440474    0.3333329859851446    0.3397572319321887     F1
    0.3333329854322145    0.6666669831836743    0.5193330449915003     O1
    0.3333329854322145    0.6666669831836743    0.3824056054701956    Sc1
    0.6666669847440474    0.3333329859851446    0.4933669507620218    Sc2
