Zr-Zr-C-F-F
   1.000
    3.3888511361883622    0.0000000000000000    0.0000000000000000
   -1.6944255680941811    2.9348311735811556    0.0000000000000000
    0.0000000000000000    0.0000000000000000   23.0779900234148414
   C    F    Zr
    1    2    2
Direct
    0.0000000000000000    0.0000000000000000    0.5000000352468601     C1
    0.3333329854322145    0.6666669831836742    0.6100180305620795     F1
    0.6666669847440474    0.3333329859851446    0.3899819694379205     F2
    0.3333329854322145    0.6666669831836742    0.4471402898781925    Zr1
    0.6666669847440474    0.3333329859851446    0.5528597095957255    Zr2
