Hf-Hf-N-NCS-PO
   1.000
    3.2765456159642632    0.0000000000000000    0.0000000000000000
   -1.6382728079821316    2.8375717400333369    0.0000000000000000
    0.0000000000000000    0.0000000000000000   28.0412466800641980
   C    Hf   N    O    P    S 
    1    2    2    1    1    1
Direct
    0.3333329854322145    0.6666669831836741    0.6239153645393311     C1
    0.3333329854322145    0.6666669831836741    0.4426787634155067    Hf1
    0.6666669847440474    0.3333329859851445    0.5311730527932287    Hf2
    0.0000000000000000    0.0000000000000000    0.4883180536548208     N1
    0.3333329854322145    0.6666669831836741    0.5784584388986639     N2
    0.6666669847440474    0.3333329859851445    0.3209557728543685     O1
    0.6666669847440474    0.3333329859851445    0.3742703223642588     P1
    0.3333329854322145    0.6666669831836741    0.6790442271456315     S1
