Hf-Hf-C-CN-H
   1.000
    3.3019845189185930    0.0000000000000000    0.0000000000000000
   -1.6509922594592965    2.8596024762787668    0.0000000000000000
    0.0000000000000000    0.0000000000000000   24.1372173253823377
   C    H    Hf   N 
    2    1    2    1
Direct
    0.0000000000000000    0.0000000000000000    0.4650238918377506     C1
    0.3333329854322145    0.6666669831836742    0.5771864310822789     C2
    0.6666669847440474    0.3333329859851446    0.3728681678039056     H1
    0.3333329854322145    0.6666669831836742    0.4140278495660759    Hf1
    0.6666669847440474    0.3333329859851446    0.5158895916961945    Hf2
    0.3333329854322145    0.6666669831836742    0.6271318321960944     N1
