Ti-Ti-C-SCN-O
   1.000
    3.1893042579809401    0.0000000000000000    0.0000000000000000
   -1.5946521289904700    2.7620185078102195    0.0000000000000000
    0.0000000000000000    0.0000000000000000   25.7453313303642588
   C    N    O    S    Ti
    2    1    1    1    2
Direct
    0.0000000000000000    0.0000000000000000    0.4341800560383201     C1
    0.3333329854322145    0.6666669831836742    0.6041647998192142     C2
    0.3333329854322145    0.6666669831836742    0.6504220557695708     N1
    0.6666669847440473    0.3333329859851446    0.3495779442304293     O1
    0.3333329854322145    0.6666669831836742    0.5391303942881096     S1
    0.3333329854322145    0.6666669831836742    0.3827320157328367    Ti1
    0.6666669847440473    0.3333329859851446    0.4774132878518920    Ti2
