 La-La-C-Br-H                           
   1.0000000000000000     
     3.9721452268547575    0.0000000000000008    0.0000000000000002
    -1.9860726134273774    3.4399786739853910    0.0000000000000005
     0.0000000000000033    0.0000000000000074   22.0921707582790390
   C    Br   H    La
     1     1     1     2
Direct
  0.0000000000000000  0.0000000000000000  0.4811722397533610
  0.3333329854322145  0.6666669831836742  0.6391949465607126
  0.6666669847440474  0.3333329859851446  0.3704962595758409
  0.3333329854322145  0.6666669831836742  0.4134565686093911
  0.6666669847440474  0.3333329859851446  0.5467247657615530

  0.00000000E+00  0.00000000E+00  0.00000000E+00
  0.00000000E+00  0.00000000E+00  0.00000000E+00
  0.00000000E+00  0.00000000E+00  0.00000000E+00
  0.00000000E+00  0.00000000E+00  0.00000000E+00
  0.00000000E+00  0.00000000E+00  0.00000000E+00
