Zr-Zr-C-CN-Br
   1.000
    3.4564634660389317    0.0000000000000000    0.0000000000000000
   -1.7282317330194659    2.9933851688404749    0.0000000000000000
    0.0000000000000000    0.0000000000000000   25.0812293706513358
   Br   C    N    Zr
    1    2    1    2
Direct
    0.6666669847440474    0.3333329859851446    0.3588340853232379    Br1
    0.0000000000000000    0.0000000000000000    0.4852384278143696     C1
    0.3333329854322145    0.6666669831836742    0.5931404013749524     C2
    0.3333329854322145    0.6666669831836742    0.6411659146767621     N1
    0.3333329854322145    0.6666669831836742    0.4372826861056223    Zr1
    0.6666669847440474    0.3333329859851446    0.5345940987246964    Zr2
