Sc-Sc-C-F-Cl
   1.000
    3.4059389475684294    0.0000000000000000    0.0000000000000000
   -1.7029694737842147    2.9496296523297065    0.0000000000000000
    0.0000000000000000    0.0000000000000000   23.2864942537191126
   C    Cl   F    Sc
    1    1    1    2
Direct
    0.0000000000000000    0.0000000000000000    0.5121079772342610     C1
    0.6666669847440473    0.3333329859851446    0.3864901217821828    Cl1
    0.3333329854322145    0.6666669831836742    0.6135098782178172     F1
    0.3333329854322145    0.6666669831836742    0.4591678149266048    Sc1
    0.6666669847440473    0.3333329859851446    0.5661194212741145    Sc2
