Y-Y-C-NCO-PO
   1.000
    3.6253666009988019    0.0000000000000000    0.0000000000000000
   -1.8126833004994010    3.1396595745331766    0.0000000000000000
    0.0000000000000000    0.0000000000000000   28.1962248092355736
   C    N    O    P    Y 
    2    1    2    1    2
Direct
    0.0000000000000000    0.0000000000000000    0.4951247759016655     C1
    0.3333329854322145    0.6666669831836742    0.6380581591991148     C2
    0.3333329854322145    0.6666669831836742    0.5938279804229094     N1
    0.3333329854322145    0.6666669831836742    0.6808083329988175     O1
    0.6666669847440475    0.3333329859851446    0.3191916670011825     O2
    0.6666669847440475    0.3333329859851446    0.3722955454561094     P1
    0.3333329854322145    0.6666669831836742    0.4477286974740810     Y1
    0.6666669847440475    0.3333329859851446    0.5439479935278635     Y2
