Zr-Zr-N-SCN-OCN
   1.000
    3.4578224537754592    0.0000000000000000    0.0000000000000000
   -1.7289112268877296    2.9945620867437044    0.0000000000000000
    0.0000000000000000    0.0000000000000000   28.7373908426362306
   C    N    O    S    Zr
    2    3    1    1    2
Direct
    0.3333329854322145    0.6666669831836742    0.6453833924055521     C1
    0.6666669847440475    0.3333329859851446    0.3545352314246960     C2
    0.0000000000000000    0.0000000000000000    0.4836072909838527     N1
    0.3333329854322145    0.6666669831836742    0.6868191670815449     N2
    0.6666669847440475    0.3333329859851446    0.3131808329184551     N3
    0.6666669847440475    0.3333329859851446    0.4010433591055600     O1
    0.3333329854322145    0.6666669831836742    0.5866967049059235     S1
    0.3333329854322145    0.6666669831836742    0.4477462094264245    Zr1
    0.6666669847440475    0.3333329859851446    0.5293156560526029    Zr2
