Ti-Ti-C-CN-OCl
   1.000
    3.0946068964737998    0.0000000000000000    0.0000000000000000
   -1.5473034482368999    2.6800081870727577    0.0000000000000000
    0.0000000000000000    0.0000000000000000   28.6090941855281180
   C    Cl   N    O    Ti
    2    1    1    1    2
Direct
    0.0000000000000000    0.0000000000000000    0.5536960386722986     C1
    0.3333329854322145    0.6666669831836742    0.6432836608358801     C2
    0.6666669847440474    0.3333329859851446    0.3145852833240923    Cl1
    0.3333329854322145    0.6666669831836742    0.6854147166759077     N1
    0.6666669847440474    0.3333329859851446    0.4758644202113417     O1
    0.3333329854322145    0.6666669831836742    0.5068495988809022    Ti1
    0.6666669847440474    0.3333329859851446    0.5939822149557032    Ti2
