Zr-Zr-N-PO-Cl
   1.000
    3.3604036484072473    0.0000000000000000    0.0000000000000000
   -1.6802018242036236    2.9101949264746998    0.0000000000000000
    0.0000000000000000    0.0000000000000000   25.6910121158097162
   Cl   N    O    P    Zr
    1    1    1    1    2
Direct
    0.6666669847440474    0.3333329859851446    0.3503170665067565    Cl1
    0.0000000000000000    0.0000000000000000    0.4666583279383227     N1
    0.3333329854322146    0.6666669831836742    0.6496829334932435     O1
    0.3333329854322146    0.6666669831836742    0.5914989130537225     P1
    0.3333329854322146    0.6666669831836742    0.4209049527156150    Zr1
    0.6666669847440474    0.3333329859851446    0.5153587386313998    Zr2
