Zr-Zr-C-NCS-OCN
   1.000
    3.4111929485243846    0.0000000000000000    0.0000000000000000
   -1.7055964742621923    2.9541797505989145    0.0000000000000000
    0.0000000000000000    0.0000000000000000   28.5501000325027512
   C    N    O    S    Zr
    3    2    1    1    2
Direct
    0.0000000000000000    0.0000000000000000    0.4938862716991619     C1
    0.3333329854322145    0.6666669831836742    0.6303567292051557     C2
    0.6666669847440474    0.3333329859851446    0.3568551326829466     C3
    0.3333329854322145    0.6666669831836742    0.5864618657709331     N1
    0.6666669847440474    0.3333329859851446    0.3152353228098670     N2
    0.6666669847440474    0.3333329859851446    0.4035926504197048     O1
    0.3333329854322145    0.6666669831836742    0.6847646771901330     S1
    0.3333329854322145    0.6666669831836742    0.4521196100918348    Zr1
    0.6666669847440474    0.3333329859851446    0.5377234253838304    Zr2
