Ti-Ti-N-O-Br
   1.000
    3.1455964670123886    0.0000000000000000    0.0000000000000000
   -1.5727982335061943    2.7241664504866283    0.0000000000000000
    0.0000000000000000    0.0000000000000000   23.1218467537774579
   Br   N    O    Ti
    1    1    1    2
Direct
    0.6666669847440474    0.3333329859851446    0.3892422649384463    Br1
    0.0000000000000000    0.0000000000000000    0.5182083932092318     N1
    0.3333329854322146    0.6666669831836742    0.6107577350615536     O1
    0.3333329854322146    0.6666669831836742    0.4706774135042426    Ti1
    0.6666669847440474    0.3333329859851446    0.5722202400888508    Ti2
