Y-Y-C-NCS-SCN
   1.000
    3.7534923953186285    0.0000000000000000    0.0000000000000000
   -1.8767461976593143    3.2506197673033164    0.0000000000000000
    0.0000000000000000    0.0000000000000000   29.4408875489204469
   C    N    S    Y 
    3    2    2    2
Direct
    0.0000000000000000    0.0000000000000000    0.5075249293935498     C1
    0.3333329854322145    0.6666669831836742    0.6412989999250687     C2
    0.6666669847440475    0.3333329859851446    0.3461226235569274     C3
    0.3333329854322145    0.6666669831836742    0.5988752508416919     N1
    0.6666669847440475    0.3333329859851446    0.3056973056619014     N2
    0.3333329854322145    0.6666669831836742    0.6943026943380985     S1
    0.6666669847440475    0.3333329859851446    0.4029685359347543     S2
    0.3333329854322145    0.6666669831836742    0.4624232776275320     Y1
    0.6666669847440475    0.3333329859851446    0.5537387875589626     Y2
