Ti-Ti-N-CN-CN
   1.000
    3.1708646473476696    0.0000000000000000    0.0000000000000000
   -1.5854323236738348    2.7460493365553011    0.0000000000000000
    0.0000000000000000    0.0000000000000000   25.3591735813245975
   C    N    Ti
    2    3    2
Direct
    0.3333329854322146    0.6666669831836742    0.5976634871046455     C1
    0.6666669847440473    0.3333329859851446    0.4023365134421927     C2
    0.0000000000000000    0.0000000000000000    0.5000000369115150     N1
    0.3333329854322146    0.6666669831836742    0.6450988447577835     N2
    0.6666669847440473    0.3333329859851446    0.3549011552422167     N3
    0.3333329854322146    0.6666669831836742    0.4581288621708173    Ti1
    0.6666669847440473    0.3333329859851446    0.5418711378291736    Ti2
