Zr-Zr-N-NCS-Cl
   1.000
    3.4346722479430611    0.0000000000000000    0.0000000000000000
   -1.7173361239715306    2.9745134203861125    0.0000000000000000
    0.0000000000000000    0.0000000000000000   26.2714093056204234
   C    Cl   N    S    Zr
    1    1    2    1    2
Direct
    0.3333329854322145    0.6666669831836742    0.5982640292538119     C1
    0.6666669847440474    0.3333329859851446    0.3425777389899889    Cl1
    0.0000000000000000    0.0000000000000000    0.4544589389041532     N1
    0.3333329854322145    0.6666669831836742    0.5505327525974284     N2
    0.3333329854322145    0.6666669831836742    0.6574222610100111     S1
    0.3333329854322145    0.6666669831836742    0.4108953500320774    Zr1
    0.6666669847440474    0.3333329859851446    0.4982495055362204    Zr2
