Sc-Sc-N-NCO-F
   1.000
    3.3189272937835894    0.0000000000000000    0.0000000000000000
   -1.6594636468917947    2.8742753497240754    0.0000000000000000
    0.0000000000000000    0.0000000000000000   25.3705379493807115
   C    F    N    O    Sc
    1    1    2    1    2
Direct
    0.3333329854322145    0.6666669831836742    0.5977762967148986     C1
    0.6666669847440474    0.3333329859851446    0.3547421823674688     F1
    0.0000000000000000    0.0000000000000000    0.4472390213380670     N1
    0.3333329854322145    0.6666669831836742    0.5486562196082405     N2
    0.3333329854322145    0.6666669831836742    0.6452578176325312     O1
    0.3333329854322145    0.6666669831836742    0.4005138854514688    Sc1
    0.6666669847440474    0.3333329859851446    0.4959778980043792    Sc2
