Hf-Hf-C-O-F
   1.000
    3.3061423010527964    0.0000000000000000    0.0000000000000000
   -1.6530711505263982    2.8632032212339693    0.0000000000000000
    0.0000000000000000    0.0000000000000000   22.8442107491057520
   C    F    Hf   O 
    1    1    2    1
Direct
    0.0000000000000000    0.0000000000000000    0.5032285518298372     C1
    0.6666669847440473    0.3333329859851446    0.3939729018807231     F1
    0.3333329854322145    0.6666669831836742    0.4512654521830979    Hf1
    0.6666669847440473    0.3333329859851446    0.5647057539999020    Hf2
    0.3333329854322145    0.6666669831836742    0.6060270981192768     O1
