 Y-Y-C-O-F                              
   1.0000000000000000     
     3.5443754155324942   -0.0000000000000001   -0.0000000000000001
    -1.7721877077662469    3.0695191504047834    0.0000000000000000
     0.0000000000000015    0.0000000000000025   27.7465631955566536
   C    F    O    Y 
     1     1     1     2
Direct
 -0.0000000000000000  0.0000000000000000  0.4996503754731236
  0.6666669847440474  0.3333329859851446  0.4086629499641344
  0.3333329854322145  0.6666669831836742  0.5915957245953444
  0.3333329854322145  0.6666669831836742  0.4515687029380873
  0.6666669847440474  0.3333329859851446  0.5651711619299314

  0.00000000E+00  0.00000000E+00  0.00000000E+00
  0.00000000E+00  0.00000000E+00  0.00000000E+00
  0.00000000E+00  0.00000000E+00  0.00000000E+00
  0.00000000E+00  0.00000000E+00  0.00000000E+00
  0.00000000E+00  0.00000000E+00  0.00000000E+00
