Y-Y-C-NCO-OCN
   1.000
    3.6497476253328864    0.0000000000000000    0.0000000000000000
   -1.8248738126664432    3.1607741609394808    0.0000000000000000
    0.0000000000000000    0.0000000000000000   28.3742605908307759
   C    N    O    Y 
    3    2    2    2
Direct
    0.0000000000000000    0.0000000000000000    0.4987859853718285     C1
    0.3333329854322145    0.6666669831836742    0.6403320171536153     C2
    0.6666669847440474    0.3333329859851446    0.3591079441179715     C3
    0.3333329854322145    0.6666669831836742    0.5963638257379952     N1
    0.6666669847440474    0.3333329859851446    0.3171888821979868     N2
    0.3333329854322145    0.6666669831836742    0.6828111178020132     O1
    0.6666669847440474    0.3333329859851446    0.4061171738005708     O2
    0.3333329854322145    0.6666669831836742    0.4507930779478674     Y1
    0.6666669847440474    0.3333329859851446    0.5470692550634453     Y2
