Sc-Sc-C-OCN-OCN
   1.000
    3.3616412371848328    0.0000000000000000    0.0000000000000000
   -1.6808206185924164    2.9112667097779430    0.0000000000000000
    0.0000000000000000    0.0000000000000000   28.0028256558824715
   C    N    O    Sc
    3    2    2    2
Direct
    0.0000000000000000    0.0000000000000000    0.5000000295201676     C1
    0.3333329854322145    0.6666669831836742    0.6361667769919458     C2
    0.6666669847440474    0.3333329859851446    0.3638332225674469     C3
    0.3333329854322145    0.6666669831836742    0.6786038626745013     N1
    0.6666669847440474    0.3333329859851446    0.3213961373254987     N2
    0.3333329854322145    0.6666669831836742    0.5883927636037697     O1
    0.6666669847440474    0.3333329859851446    0.4116072363962302     O2
    0.3333329854322145    0.6666669831836742    0.4552619524426497    Sc1
    0.6666669847440474    0.3333329859851446    0.5447380471167429    Sc2
