Zr-Zr-C-H-OH
   1.000
    3.3265926195915316    0.0000000000000000    0.0000000000000000
   -1.6632963097957658    2.8809137165962642    0.0000000000000000
    0.0000000000000000    0.0000000000000000   23.8674151787431690
   C    H    O    Zr
    1    2    1    2
Direct
    0.0000000000000000    0.0000000000000000    0.5266733215572217     C1
    0.3333329854322144    0.6666669831836742    0.6229168541042688     H1
    0.6666669847440474    0.3333329859851446    0.3770831458957312     H2
    0.6666669847440474    0.3333329859851446    0.4184078266887647     O1
    0.3333329854322144    0.6666669831836742    0.4753019811186110    Zr1
    0.6666669847440474    0.3333329859851446    0.5803977450915980    Zr2
