Y-Y-N-NCO-H
   1.000
    3.5170528282220350    0.0000000000000000    0.0000000000000000
   -1.7585264141110175    3.0458570956953097    0.0000000000000000
    0.0000000000000000    0.0000000000000000   25.5966086125676782
   C    H    N    O    Y 
    1    1    2    1    2
Direct
    0.3333329854322145    0.6666669831836742    0.6012898243225578     C1
    0.6666669847440474    0.3333329859851446    0.3516090797896206     H1
    0.0000000000000000    0.0000000000000000    0.4453683292545883     N1
    0.3333329854322145    0.6666669831836742    0.5526578856983642     N2
    0.3333329854322145    0.6666669831836742    0.6483909202103794     O1
    0.3333329854322145    0.6666669831836742    0.3914841813255892     Y1
    0.6666669847440474    0.3333329859851446    0.4958316851357995     Y2
