Sc-Sc-C-CN-CN
   1.000
    3.4132276385668274    0.0000000000000000    0.0000000000000000
   -1.7066138192834137    2.9559418438958511    0.0000000000000000
    0.0000000000000000    0.0000000000000000   25.7225658150966261
   C    N    Sc
    3    2    2
Direct
    0.0000000000000000    0.0000000000000000    0.5000000314056349     C1
    0.3333329854322144    0.6666669831836742    0.6035021851147302     C2
    0.6666669847440474    0.3333329859851445    0.3964978153505384     C3
    0.3333329854322144    0.6666669831836742    0.6501126650935467     N1
    0.6666669847440474    0.3333329859851445    0.3498873349064533     N2
    0.3333329854322144    0.6666669831836742    0.4516834116972311    Sc1
    0.6666669847440474    0.3333329859851445    0.5483165883027606    Sc2
