Y-Y-N-H-OH
   1.000
    3.4974681381481045    0.0000000000000000    0.0000000000000000
   -1.7487340690740523    3.0288962565621804    0.0000000000000000
    0.0000000000000000    0.0000000000000000   24.0363059170904556
   H    N    O    Y 
    2    1    1    2
Direct
    0.3333329854322145    0.6666669831836742    0.6255664230999507     H1
    0.6666669847440474    0.3333329859851447    0.3744335769000493     H2
    0.0000000000000000    0.0000000000000000    0.5242562463113597     N1
    0.6666669847440474    0.3333329859851447    0.4154475277769512     O1
    0.3333329854322145    0.6666669831836742    0.4703292465954685     Y1
    0.6666669847440474    0.3333329859851447    0.5823050559498640     Y2
