Y-Y-N-H-H
   1.000
    3.4941420046798641    0.0000000000000000    0.0000000000000000
   -1.7470710023399321    3.0260157404808754    0.0000000000000000
    0.0000000000000000    0.0000000000000000   22.8139235646454281
   H    N    Y 
    2    1    2
Direct
    0.3333329854322145    0.6666669831836741    0.6055040697187556     H1
    0.6666669847440474    0.3333329859851446    0.3944959302812444     H2
    0.0000000000000000    0.0000000000000000    0.5000000335383981     N1
    0.3333329854322145    0.6666669831836741    0.4411417735167414     Y1
    0.6666669847440474    0.3333329859851446    0.5588582259826762     Y2
