Y-Y-N-NCO-Cl
   1.000
    3.5796632230912069    0.0000000000000000    0.0000000000000000
   -1.7898316115456034    3.1000792881947721    0.0000000000000000
    0.0000000000000000    0.0000000000000000   26.3008624527306765
   C    Cl   N    O    Y 
    1    1    2    1    2
Direct
    0.3333329854322145    0.6666669831836742    0.6119589798188658     C1
    0.6666669847440475    0.3333329859851446    0.3421941016639771    Cl1
    0.0000000000000000    0.0000000000000000    0.4606739315408989     N1
    0.3333329854322145    0.6666669831836742    0.5645862682589557     N2
    0.3333329854322145    0.6666669831836742    0.6578058983360229     O1
    0.3333329854322145    0.6666669831836742    0.4103486786130820     Y1
    0.6666669847440475    0.3333329859851446    0.5103909202505108     Y2
