Zr-Zr-N-F-Br
   1.000
    3.4455019488867409    0.0000000000000000    0.0000000000000000
   -1.7227509744433704    2.9838922165206099    0.0000000000000000
    0.0000000000000000    0.0000000000000000   23.5088689775507298
   Br   F    N    Zr
    1    1    1    2
Direct
    0.6666669847440473    0.3333329859851446    0.3828342404985263    Br1
    0.3333329854322145    0.6666669831836742    0.6171657595014737     F1
    0.0000000000000000    0.0000000000000000    0.5168102033488362     N1
    0.3333329854322145    0.6666669831836742    0.4663621509747464    Zr1
    0.6666669847440473    0.3333329859851446    0.5627633507387053    Zr2
