Y-Y-N-NO-OCl
   1.000
    3.7288146284025228    0.0000000000000000    0.0000000000000000
   -1.8644073142012614    3.2292481942076692    0.0000000000000000
    0.0000000000000000    0.0000000000000000   25.9690552277887718
   Cl   N    O    Y 
    1    2    2    2
Direct
    0.6666669847440474    0.3333329859851446    0.3465663236901027    Cl1
    0.0000000000000000    0.0000000000000000    0.5226258833956164     N1
    0.3333329854322145    0.6666669831836742    0.6049559048890117     N2
    0.3333329854322145    0.6666669831836742    0.6534336763098973     O1
    0.6666669847440474    0.3333329859851446    0.4505560046743654     O2
    0.3333329854322145    0.6666669831836742    0.4227351754497291     Y1
    0.6666669847440474    0.3333329859851446    0.5432311527279824     Y2
