Hf-Hf-N-CN-F
   1.000
    3.3400145318578436    0.0000000000000000    0.0000000000000000
   -1.6700072659289218    2.8925374335969325    0.0000000000000000
    0.0000000000000000    0.0000000000000000   24.2382963773491973
   C    F    Hf   N 
    1    1    2    2
Direct
    0.3333329854322145    0.6666669831836742    0.5788390359407064     C1
    0.6666669847440474    0.3333329859851446    0.3713132251493774     F1
    0.3333329854322145    0.6666669831836742    0.4251292893467084    Hf1
    0.6666669847440474    0.3333329859851446    0.5188254577944115    Hf2
    0.0000000000000000    0.0000000000000000    0.4691723695989867     N1
    0.3333329854322145    0.6666669831836742    0.6286867748506226     N2
