Ti-Ti-C-NO-SCN
   1.000
    3.2784260250289226    0.0000000000000000    0.0000000000000000
   -1.6392130125144613    2.8392002220968440    0.0000000000000000
    0.0000000000000000    0.0000000000000000   26.9849620286049685
   C    N    O    S    Ti
    2    2    1    1    2
Direct
    0.0000000000000000    0.0000000000000000    0.5362622765894706     C1
    0.6666669847440473    0.3333329859851446    0.3776669727974135     C2
    0.3333329854322146    0.6666669831836743    0.6178104475149265     N1
    0.6666669847440473    0.3333329859851446    0.3335190907609836     N2
    0.3333329854322146    0.6666669831836743    0.6664809092390164     O1
    0.6666669847440473    0.3333329859851446    0.4396665134660459     S1
    0.3333329854322146    0.6666669831836743    0.4984309301858783    Ti1
    0.6666669847440473    0.3333329859851446    0.5845018241670294    Ti2
