Ti-Ti-C-NCO-OCN
   1.000
    3.1760032539951539    0.0000000000000000    0.0000000000000000
   -1.5880016269975770    2.7504995004617077    0.0000000000000000
    0.0000000000000000    0.0000000000000000   27.8260096683426994
   C    N    O    Ti
    3    2    2    2
Direct
    0.0000000000000000    0.0000000000000000    0.5001702539999220     C1
    0.3333329854322145    0.6666669831836741    0.6333081229686106     C2
    0.6666669847440475    0.3333329859851446    0.3661363232373213     C3
    0.3333329854322145    0.6666669831836741    0.5884856032982579     N1
    0.6666669847440475    0.3333329859851446    0.3234383983643614     N2
    0.3333329854322145    0.6666669831836741    0.6765616016356386     O1
    0.6666669847440475    0.3333329859851446    0.4141185897252385     O2
    0.3333329854322145    0.6666669831836741    0.4606020632150936    Ti1
    0.6666669847440475    0.3333329859851446    0.5404954290395654    Ti2
