Hf-Hf-N-NCO-NCO
   1.000
    3.3114192314626010    0.0000000000000000    0.0000000000000000
   -1.6557096157313005    2.8677731770310717    0.0000000000000000
    0.0000000000000000    0.0000000000000000   28.0190993783014015
   C    Hf   N    O 
    2    2    3    2
Direct
    0.3333329854322146    0.6666669831836742    0.6357852413083714     C1
    0.6666669847440475    0.3333329859851446    0.3642147582378344     C2
    0.3333329854322146    0.6666669831836742    0.4592433762218729    Hf1
    0.6666669847440475    0.3333329859851446    0.5407566233243249    Hf2
    0.0000000000000000    0.0000000000000000    0.5000000304047161     N1
    0.3333329854322146    0.6666669831836742    0.5911334159447061     N2
    0.6666669847440475    0.3333329859851446    0.4088665840553016     N3
    0.3333329854322146    0.6666669831836742    0.6787905321835649     O1
    0.6666669847440475    0.3333329859851446    0.3212094678164351     O2
