Y-Y-N-PO-Br
   1.000
    3.6038162541665519    0.0000000000000000    0.0000000000000000
   -1.8019081270832760    3.1209964266859922    0.0000000000000000
    0.0000000000000000    0.0000000000000000   26.1369650618323668
   Br   N    O    P    Y 
    1    1    1    1    2
Direct
    0.6666669847440474    0.3333329859851445    0.3443399024603143    Br1
    0.0000000000000000    0.0000000000000000    0.4687356110036425     N1
    0.3333329854322145    0.6666669831836741    0.6556600975396858     O1
    0.3333329854322145    0.6666669831836741    0.5983639657004023     P1
    0.3333329854322145    0.6666669831836741    0.4200909713024457     Y1
    0.6666669847440474    0.3333329859851445    0.5196177527770899     Y2
