Y-Y-C-PO-O
   1.000
    3.6405528627403556    0.0000000000000000    0.0000000000000000
   -1.8202764313701778    3.1528112629842071    0.0000000000000000
    0.0000000000000000    0.0000000000000000   25.2432062854365391
   C    O    P    Y 
    1    2    1    2
Direct
    0.0000000000000000    0.0000000000000000    0.4548749952759399     C1
    0.3333329854322146    0.6666669831836743    0.6434684287632537     O1
    0.6666669847440474    0.3333329859851446    0.3565315712367463     O2
    0.3333329854322146    0.6666669831836743    0.5842897389538568     P1
    0.3333329854322146    0.6666669831836743    0.3823240191622909     Y1
    0.6666669847440474    0.3333329859851446    0.4952399214375168     Y2
