Ti-Ti-C-OCl-OCl
   1.000
    3.0519402192564109    0.0000000000000000    0.0000000000000000
   -1.5259701096282055    2.6430577607086958    0.0000000000000000
    0.0000000000000000    0.0000000000000000   32.8705724757294817
   C    Cl   O    Ti
    1    2    2    2
Direct
    0.0000000000000000    0.0000000000000000    0.5000000305115411     C1
    0.3333329854322146    0.6666669831836742    0.7261988665805776    Cl1
    0.6666669847440474    0.3333329859851446    0.2738011334194224    Cl2
    0.3333329854322146    0.6666669831836742    0.5670908628140463     O1
    0.6666669847440474    0.3333329859851446    0.4329091371859618     O2
    0.3333329854322146    0.6666669831836742    0.4599490342222846    Ti1
    0.6666669847440474    0.3333329859851446    0.5400509653223191    Ti2
