Sc-Sc-C-PO-O
   1.000
    3.3697386687690258    0.0000000000000000    0.0000000000000000
   -1.6848693343845129    2.9182792912641329    0.0000000000000000
    0.0000000000000000    0.0000000000000000   24.8907673542692542
   C    O    P    Sc
    1    2    1    2
Direct
    0.0000000000000000    0.0000000000000000    0.4544439666378701     C1
    0.3333329854322144    0.6666669831836741    0.6384201470407329     O1
    0.6666669847440474    0.3333329859851445    0.3615798529592670     O2
    0.3333329854322144    0.6666669831836741    0.5785106790411266     P1
    0.3333329854322144    0.6666669831836741    0.3875813251015194    Sc1
    0.6666669847440474    0.3333329859851445    0.4913381149888173    Sc2
