Sc-Sc-N-NO-SCN
   1.000
    3.4145468896235860    0.0000000000000000    0.0000000000000000
   -1.7072734448117930    2.9570843488187317    0.0000000000000000
    0.0000000000000000    0.0000000000000000   27.3272373519836904
   C    N    O    S    Sc
    1    3    1    1    2
Direct
    0.6666669847440474    0.3333329859851446    0.3729057693623844     C1
    0.0000000000000000    0.0000000000000000    0.5332263866812995     N1
    0.3333329854322145    0.6666669831836742    0.6221013778005466     N2
    0.6666669847440474    0.3333329859851446    0.3293417436997775     N3
    0.3333329854322145    0.6666669831836742    0.6706582563002225     O1
    0.6666669847440474    0.3333329859851446    0.4340121997156493     S1
    0.3333329854322145    0.6666669831836742    0.4953450507506949    Sc1
    0.6666669847440474    0.3333329859851446    0.5882160845995993    Sc2
