Y-Y-N-NCS-NCS
   1.000
    3.5880785626274170    0.0000000000000000    0.0000000000000000
   -1.7940392813137085    3.1073671860085943    0.0000000000000000
    0.0000000000000000    0.0000000000000000   29.0245083663293357
   C    N    S    Y 
    2    3    2    2
Direct
    0.3333329854322145    0.6666669831836741    0.6362248176188268     C1
    0.6666669847440475    0.3333329859851445    0.3637751823811727     C2
    0.0000000000000000    0.0000000000000000    0.5000000251862557     N1
    0.3333329854322145    0.6666669831836741    0.5931964233376260     N2
    0.6666669847440475    0.3333329859851445    0.4068035770355033     N3
    0.3333329854322145    0.6666669831836741    0.6899172283503450     S1
    0.6666669847440475    0.3333329859851445    0.3100827716496550     S2
    0.3333329854322145    0.6666669831836741    0.4542375622533232     Y1
    0.6666669847440475    0.3333329859851445    0.5457624377466695     Y2
