Zr-Zr-N-PO-Br
   1.000
    3.4023599028939056    0.0000000000000000    0.0000000000000000
   -1.7011799514469528    2.9465301087080369    0.0000000000000000
    0.0000000000000000    0.0000000000000000   25.8105809088397500
   Br   N    O    P    Zr
    1    1    1    1    2
Direct
    0.6666669847440474    0.3333329859851446    0.3486942053643446    Br1
    0.0000000000000000    0.0000000000000000    0.4703137603320655     N1
    0.3333329854322145    0.6666669831836742    0.6513057946356554     O1
    0.3333329854322145    0.6666669831836742    0.5933485126788067     P1
    0.3333329854322145    0.6666669831836742    0.4252270759400781    Zr1
    0.6666669847440474    0.3333329859851446    0.5181702892814964    Zr2
