Ti-Ti-N-Br-H
   1.000
    3.2054295989297339    0.0000000000000000    0.0000000000000000
   -1.6027147994648669    2.7759834627110540    0.0000000000000000
    0.0000000000000000    0.0000000000000000   22.8907852140734249
   Br   H    N    Ti
    1    1    1    2
Direct
    0.3333329854322145    0.6666669831836742    0.6068286904170184    Br1
    0.6666669847440474    0.3333329859851446    0.3931713095829816     H1
    0.0000000000000000    0.0000000000000000    0.4802643425259470     N1
    0.3333329854322145    0.6666669831836742    0.4350720674025483    Ti1
    0.6666669847440474    0.3333329859851446    0.5250105981165373    Ti2
