Zr-Zr-N-NO-NCO
   1.000
    3.3430935392543280    0.0000000000000000    0.0000000000000000
   -1.6715467696271640    2.8952039322005110    0.0000000000000000
    0.0000000000000000    0.0000000000000000   26.9165589722542116
   C    N    O    Zr
    1    3    2    2
Direct
    0.6666669847440474    0.3333329859851446    0.3791159085790689     C1
    0.0000000000000000    0.0000000000000000    0.5232860307604537     N1
    0.3333329854322144    0.6666669831836742    0.6168110907187929     N2
    0.6666669847440474    0.3333329859851446    0.4254911684070088     N3
    0.3333329854322144    0.6666669831836742    0.6656333371112828     O1
    0.6666669847440474    0.3333329859851446    0.3343666628887171     O2
    0.3333329854322144    0.6666669831836742    0.4798144504117703    Zr1
    0.6666669847440474    0.3333329859851446    0.5708764386524439    Zr2
