Zr-Zr-C-NO-Br
   1.000
    3.4822064195671336    0.0000000000000000    0.0000000000000000
   -1.7411032097835668    3.0156792205624345    0.0000000000000000
    0.0000000000000000    0.0000000000000000   24.8073169917948668
   Br   C    N    O    Zr
    1    1    1    1    2
Direct
    0.6666669847440473    0.3333329859851445    0.3627961864226103    Br1
    0.0000000000000000    0.0000000000000000    0.4870338848873866     C1
    0.3333329854322145    0.6666669831836742    0.5834604562587120     N1
    0.3333329854322145    0.6666669831836742    0.6372038135773896     O1
    0.3333329854322145    0.6666669831836742    0.4424626703810439    Zr1
    0.6666669847440473    0.3333329859851445    0.5459353726999292    Zr2
