Hf-Hf-C-OCl-OH
   1.000
    3.2606764232121961    0.0000000000000000    0.0000000000000000
   -1.6303382116060980    2.8238286160244725    0.0000000000000000
    0.0000000000000000    0.0000000000000000   27.3052575242640287
   C    Cl   H    Hf   O 
    1    1    1    2    2
Direct
    0.0000000000000000    0.0000000000000000    0.4586218509032838     C1
    0.3333329854322145    0.6666669831836742    0.6703931471072041    Cl1
    0.6666669847440474    0.3333329859851446    0.3296068528927959     H1
    0.3333329854322145    0.6666669831836742    0.4140768797304504    Hf1
    0.6666669847440474    0.3333329859851446    0.5109657264615672    Hf2
    0.3333329854322145    0.6666669831836742    0.5439234882851152     O1
    0.6666669847440474    0.3333329859851446    0.3658632110064891     O2
