Zr-Zr-N-CN-H
   1.000
    3.3425491432362953    0.0000000000000000    0.0000000000000000
   -1.6712745716181476    2.8947324714401055    0.0000000000000000
    0.0000000000000000    0.0000000000000000   24.0992482489706958
   C    H    N    Zr
    1    1    2    2
Direct
    0.3333329854322145    0.6666669831836741    0.5765268751771117     C1
    0.6666669847440474    0.3333329859851446    0.3734556325998426     H1
    0.0000000000000000    0.0000000000000000    0.4645099525364917     N1
    0.3333329854322145    0.6666669831836741    0.6265443674001574     N2
    0.3333329854322145    0.6666669831836741    0.4150041375472689    Zr1
    0.6666669847440474    0.3333329859851446    0.5142194756931230    Zr2
