 La-La-C-Cl-H                           
   1.0000000000000000     
     3.9564441147516503    0.0000000000000001    0.0000000000000004
    -1.9782220573758251    3.4263811120351626    0.0000000000000002
     0.0000000000000040    0.0000000000000062   22.2678638392824411
   C    Cl   H    La
     1     1     1     2
Direct
  0.0000000000000000  0.0000000000000000  0.4852312760307549
  0.3333329854322145  0.6666669831836742  0.6327031677139849
  0.6666669847440474  0.3333329859851446  0.3744246491125101
  0.3333329854322145  0.6666669831836742  0.4179013600571495
  0.6666669847440474  0.3333329859851446  0.5506211870553709

  0.00000000E+00  0.00000000E+00  0.00000000E+00
  0.00000000E+00  0.00000000E+00  0.00000000E+00
  0.00000000E+00  0.00000000E+00  0.00000000E+00
  0.00000000E+00  0.00000000E+00  0.00000000E+00
  0.00000000E+00  0.00000000E+00  0.00000000E+00
