Hf-Hf-N-CN-NCS
   1.000
    3.3334818522311558    0.0000000000000000    0.0000000000000000
   -1.6667409261155779    2.8868799670772800    0.0000000000000000
    0.0000000000000000    0.0000000000000000   27.1508395912785083
   C    Hf   N    S 
    2    2    3    1
Direct
    0.3333329854322145    0.6666669831836742    0.6240096679784140     C1
    0.6666669847440474    0.3333329859851446    0.3885231021075856     C2
    0.3333329854322145    0.6666669831836742    0.4846212840639637    Hf1
    0.6666669847440474    0.3333329859851446    0.5701735901630518    Hf2
    0.0000000000000000    0.0000000000000000    0.5271142579126302     N1
    0.3333329854322145    0.6666669831836742    0.6685185380826670     N2
    0.6666669847440474    0.3333329859851446    0.4351447037116826     N3
    0.6666669847440474    0.3333329859851446    0.3314814619173330     S1
