Ti-Ti-C-OCl-OCN
   1.000
    3.1010814883988567    0.0000000000000000    0.0000000000000000
   -1.5505407441994283    2.6856153481589913    0.0000000000000000
    0.0000000000000000    0.0000000000000000   30.3219352302709240
   C    Cl   N    O    Ti
    2    1    1    2    2
Direct
    0.0000000000000000    0.0000000000000000    0.4602500173836322     C1
    0.6666669847440474    0.3333329859851445    0.3359817472909097     C2
    0.3333329854322146    0.6666669831836742    0.7031851716702059    Cl1
    0.6666669847440474    0.3333329859851445    0.2968148283297941     N1
    0.3333329854322146    0.6666669831836742    0.5339080575162303     O1
    0.6666669847440474    0.3333329859851445    0.3800991831825492     O2
    0.3333329854322146    0.6666669831836742    0.4232667942350041    Ti1
    0.6666669847440474    0.3333329859851445    0.5045657667832225    Ti2
