Sc-Sc-C-OCl-NCO
   1.000
    3.3887709177174510    0.0000000000000000    0.0000000000000000
   -1.6943854588587255    2.9347617023528354    0.0000000000000000
    0.0000000000000000    0.0000000000000000   27.1363140085961874
   C    Cl   N    O    Sc
    2    1    1    2    2
Direct
    0.0000000000000000    0.0000000000000000    0.5164449086915937     C1
    0.6666669847440474    0.3333329859851446    0.3760691275946123     C2
    0.3333329854322145    0.6666669831836742    0.6683411019953190    Cl1
    0.6666669847440474    0.3333329859851446    0.4219658779595314     N1
    0.3333329854322145    0.6666669831836742    0.6041248888062171     O1
    0.6666669847440474    0.3333329859851446    0.3316588980046810     O2
    0.3333329854322145    0.6666669831836742    0.4710685168043124    Sc1
    0.6666669847440474    0.3333329859851446    0.5634454053868965    Sc2
