Sc-Sc-C-PO-PO
   1.000
    3.3392481281632072    0.0000000000000000    0.0000000000000000
   -1.6696240640816036    2.8918737085230588    0.0000000000000000
    0.0000000000000000    0.0000000000000000   27.4984752667143191
   C    O    P    Sc
    1    2    2    2
Direct
    0.0000000000000000    0.0000000000000000    0.5000000304661379     C1
    0.3333329854322145    0.6666669831836741    0.6727091261349278     O1
    0.6666669847440473    0.3333329859851446    0.3272908738650721     O2
    0.3333329854322145    0.6666669831836741    0.6183904418758601     P1
    0.6666669847440473    0.3333329859851446    0.3816095581241399     P2
    0.3333329854322145    0.6666669831836741    0.4560765278044651    Sc1
    0.6666669847440473    0.3333329859851446    0.5439234717408084    Sc2
