Zr-Zr-N-PO-F
   1.000
    3.3607155402220426    0.0000000000000000    0.0000000000000000
   -1.6803577701110213    2.9104650327195696    0.0000000000000000
    0.0000000000000000    0.0000000000000000   25.1343843184448232
   F    N    O    P    Zr
    1    1    1    1    2
Direct
    0.6666669847440474    0.3333329859851447    0.3580752122659064     F1
    0.0000000000000000    0.0000000000000000    0.4529521732510559     N1
    0.3333329854322145    0.6666669831836742    0.6419247877340934     O1
    0.3333329854322145    0.6666669831836742    0.5824635430192647     P1
    0.3333329854322145    0.6666669831836742    0.4098763855637972    Zr1
    0.6666669847440474    0.3333329859851447    0.5047722809243472    Zr2
