Sc-Sc-C-NCO-NCO
   1.000
    3.3604427763552240    0.0000000000000000    0.0000000000000000
   -1.6802213881776120    2.9102288122808697    0.0000000000000000
    0.0000000000000000    0.0000000000000000   28.0763009329276088
   C    N    O    Sc
    3    2    2    2
Direct
    0.0000000000000000    0.0000000000000000    0.5000000294639222     C1
    0.3333329854322144    0.6666669831836742    0.6365460061894621     C2
    0.6666669847440474    0.3333329859851446    0.3634539933707857     C3
    0.3333329854322144    0.6666669831836742    0.5921725846532517     N1
    0.6666669847440474    0.3333329859851446    0.4078274153467560     N2
    0.3333329854322144    0.6666669831836742    0.6794449517584102     O1
    0.6666669847440474    0.3333329859851446    0.3205550482415897     O2
    0.3333329854322144    0.6666669831836742    0.4553684700304091    Sc1
    0.6666669847440474    0.3333329859851446    0.5446315295298307    Sc2
