Sc-Sc-N-OH-OH
   1.000
    3.2376771788458920    0.0000000000000000    0.0000000000000000
   -1.6188385894229460    2.8039106861178396    0.0000000000000000
    0.0000000000000000    0.0000000000000000   24.8874682717501692
   H    N    O    Sc
    2    1    2    2
Direct
    0.3333329854322145    0.6666669831836742    0.6383722160194203     H1
    0.6666669847440475    0.3333329859851445    0.3616277839805797     H2
    0.0000000000000000    0.0000000000000000    0.5000000358076360     N1
    0.3333329854322145    0.6666669831836742    0.5987551862004047     O1
    0.6666669847440475    0.3333329859851445    0.4012448137996049     O2
    0.3333329854322145    0.6666669831836742    0.4505099201727365    Sc1
    0.6666669847440475    0.3333329859851445    0.5494900792928209    Sc2
