Sc-Sc-C-O-O
   1.000
    3.2434842520921823    0.0000000000000000    0.0000000000000000
   -1.6217421260460911    2.8089397590827496    0.0000000000000000
    0.0000000000000000    0.0000000000000000   22.8511886019738881
   C    O    Sc
    1    2    2
Direct
    0.0000000000000000    0.0000000000000000    0.5000000388589461     C1
    0.3333329854322145    0.6666669831836742    0.6061474019245292     O1
    0.6666669847440474    0.3333329859851446    0.3938525980754707     O2
    0.3333329854322145    0.6666669831836742    0.4265140265497919    Sc1
    0.6666669847440474    0.3333329859851446    0.5734859728702135    Sc2
