Sc-Sc-C-Br-Br
   1.000
    3.5255768137503170    0.0000000000000000    0.0000000000000000
   -1.7627884068751585    3.0532390837006491    0.0000000000000000
    0.0000000000000000    0.0000000000000000   24.1121865087395335
   Br   C    Sc
    2    1    2
Direct
    0.3333329854322144    0.6666669831836742    0.6267447584341669    Br1
    0.6666669847440474    0.3333329859851446    0.3732552415658331    Br2
    0.0000000000000000    0.0000000000000000    0.5000000311692565     C1
    0.3333329854322144    0.6666669831836742    0.4496383995406889    Sc1
    0.6666669847440474    0.3333329859851446    0.5503615999940898    Sc2
