Sc-Sc-C-PO-Cl
   1.000
    3.4009915332335154    0.0000000000000000    0.0000000000000000
   -1.7004957666167577    2.9453450658294060    0.0000000000000000
    0.0000000000000000    0.0000000000000000   25.6483768685783780
   C    Cl   O    P    Sc
    1    1    1    1    2
Direct
    0.0000000000000000    0.0000000000000000    0.4653847381170133     C1
    0.6666669847440473    0.3333329859851446    0.3508993978884422    Cl1
    0.3333329854322145    0.6666669831836742    0.6491006021115578     O1
    0.3333329854322145    0.6666669831836742    0.5908106050548136     P1
    0.3333329854322145    0.6666669831836742    0.4165411526525276    Sc1
    0.6666669847440473    0.3333329859851446    0.5119572125444580    Sc2
