Sc-Sc-N-SCN-SCN
   1.000
    3.5095022322214735    0.0000000000000000    0.0000000000000000
   -1.7547511161107368    3.0393180877363304    0.0000000000000000
    0.0000000000000000    0.0000000000000000   29.2555109160318771
   C    N    S    Sc
    2    3    2    2
Direct
    0.3333329854322145    0.6666669831836742    0.6516758688209908     C1
    0.6666669847440474    0.3333329859851446    0.3483241315659554     C2
    0.0000000000000000    0.0000000000000000    0.5000000261188254     N1
    0.3333329854322145    0.6666669831836742    0.6923656528907843     N2
    0.6666669847440474    0.3333329859851446    0.3076343471092157     N3
    0.3333329854322145    0.6666669831836742    0.5943531563019783     S1
    0.6666669847440474    0.3333329859851446    0.4056468440849680     S2
    0.3333329854322145    0.6666669831836742    0.4602421493103224    Sc1
    0.6666669847440474    0.3333329859851446    0.5397578506896713    Sc2
