Hf-Hf-C-Br-Br
   1.000
    3.4746096188458040    0.0000000000000000    0.0000000000000000
   -1.7373048094229020    3.0091001981447065    0.0000000000000000
    0.0000000000000000    0.0000000000000000   24.1785975477524211
   Br   C    Hf
    2    1    2
Direct
    0.3333329854322145    0.6666669831836742    0.6277699737453706    Br1
    0.6666669847440474    0.3333329859851446    0.3722300262546294    Br2
    0.0000000000000000    0.0000000000000000    0.5000000320022313     C1
    0.3333329854322145    0.6666669831836742    0.4525496184808514    Hf1
    0.6666669847440474    0.3333329859851446    0.5474503810414950    Hf2
