Zr-Zr-N-NO-H
   1.000
    3.2878159125205899    0.0000000000000000    0.0000000000000000
   -1.6439079562602950    2.8473321032102170    0.0000000000000000
    0.0000000000000000    0.0000000000000000   24.1126133558579632
   H    N    O    Zr
    1    2    1    2
Direct
    0.6666669847440474    0.3333329859851446    0.3732486341142911     H1
    0.0000000000000000    0.0000000000000000    0.4668555547937068     N1
    0.3333329854322145    0.6666669831836742    0.5722512393743033     N2
    0.3333329854322145    0.6666669831836742    0.6267513658857089     O1
    0.3333329854322145    0.6666669831836742    0.4141832936682093    Zr1
    0.6666669847440474    0.3333329859851446    0.5202313063464616    Zr2
