Sc-Sc-C-Br-OH
   1.000
    3.4213574611329944    0.0000000000000000    0.0000000000000000
   -1.7106787305664972    2.9629824767604904    0.0000000000000000
    0.0000000000000000    0.0000000000000000   24.5434551705255011
   Br   C    H    O    Sc
    1    1    1    1    2
Direct
    0.3333329854322146    0.6666669831836742    0.6333034636945414    Br1
    0.0000000000000000    0.0000000000000000    0.5070231533124849     C1
    0.6666669847440474    0.3333329859851446    0.3666965363054586     H1
    0.6666669847440474    0.3333329859851446    0.4068237770826478     O1
    0.3333329854322146    0.6666669831836742    0.4556942924100594    Sc1
    0.6666669847440474    0.3333329859851446    0.5566904602336082    Sc2
