Ti-Ti-C-Br-OCN
   1.000
    3.2503194420271564    0.0000000000000000    0.0000000000000000
   -1.6251597210135782    2.8148592072092016    0.0000000000000000
    0.0000000000000000    0.0000000000000000   25.8168482137519000
   Br   C    N    O    Ti
    1    2    1    1    2
Direct
    0.3333329854322145    0.6666669831836742    0.6513904437333309    Br1
    0.0000000000000000    0.0000000000000000    0.5376713172350898     C1
    0.6666669847440475    0.3333329859851446    0.3946406681241617     C2
    0.6666669847440475    0.3333329859851446    0.3486095562666692     N1
    0.6666669847440475    0.3333329859851446    0.4463127610229206     O1
    0.3333329854322145    0.6666669831836742    0.4958595559844310    Ti1
    0.6666669847440475    0.3333329859851446    0.5797547445500739    Ti2
