Ti-Ti-C-SCN-H
   1.000
    3.2269901313732929    0.0000000000000000    0.0000000000000000
   -1.6134950656866465    2.7946554314989638    0.0000000000000000
    0.0000000000000000    0.0000000000000000   25.5798586398507197
   C    H    N    S    Ti
    2    1    1    1    2
Direct
    0.0000000000000000    0.0000000000000000    0.4308453707045897     C1
    0.3333329854322145    0.6666669831836741    0.6016062694793423     C2
    0.6666669847440473    0.3333329859851446    0.3518393172814079     H1
    0.3333329854322145    0.6666669831836741    0.6481606827185922     N1
    0.3333329854322145    0.6666669831836741    0.5361904765825826     S1
    0.3333329854322145    0.6666669831836741    0.3882384642520658    Ti1
    0.6666669847440473    0.3333329859851446    0.4747723464728585    Ti2
