Zr-Zr-N-H-OH
   1.000
    3.2841548813641190    0.0000000000000000    0.0000000000000000
   -1.6420774406820595    2.8441615572226966    0.0000000000000000
    0.0000000000000000    0.0000000000000000   23.8340240210223762
   H    N    O    Zr
    2    1    1    2
Direct
    0.3333329854322145    0.6666669831836742    0.6223885655203791     H1
    0.6666669847440475    0.3333329859851446    0.3776114344796209     H2
    0.0000000000000000    0.0000000000000000    0.5270393420441368     N1
    0.6666669847440475    0.3333329859851446    0.4191897403341929     O1
    0.3333329854322145    0.6666669831836742    0.4759104775377209    Zr1
    0.6666669847440475    0.3333329859851446    0.5788969931206427    Zr2
