Ti-Ti-N-OCl-O
   1.000
    3.0514157015128505    0.0000000000000000    0.0000000000000000
   -1.5257078507564252    2.6426035150209173    0.0000000000000000
    0.0000000000000000    0.0000000000000000   28.1477030330421378
   Cl   N    O    Ti
    1    1    2    2
Direct
    0.3333329854322145    0.6666669831836742    0.6802581017202347    Cl1
    0.0000000000000000    0.0000000000000000    0.3971570161654813     N1
    0.3333329854322145    0.6666669831836742    0.4743300931250216     O1
    0.6666669847440474    0.3333329859851446    0.3197418982797653     O2
    0.3333329854322145    0.6666669831836742    0.3520468545664639    Ti1
    0.6666669847440474    0.3333329859851446    0.4424384313882214    Ti2
