Hf-Hf-N-NCO-OH
   1.000
    3.2872168152675756    0.0000000000000000    0.0000000000000000
   -1.6436084076337878    2.8468132697451107    0.0000000000000000
    0.0000000000000000    0.0000000000000000   26.4765166132384948
   C    H    Hf   N    O 
    1    1    2    2    2
Direct
    0.3333329854322145    0.6666669831836742    0.6145494789751872     C1
    0.6666669847440474    0.3333329859851446    0.3399238703289208     H1
    0.3333329854322145    0.6666669831836742    0.4261677366045221    Hf1
    0.6666669847440474    0.3333329859851446    0.5139021910011056    Hf2
    0.0000000000000000    0.0000000000000000    0.4695239700563976     N1
    0.3333329854322145    0.6666669831836742    0.5672988512776681     N2
    0.3333329854322145    0.6666669831836742    0.6600761296710792     O1
    0.6666669847440474    0.3333329859851446    0.3775268615746853     O2
