Y-Y-N-NO-OH
   1.000
    3.5718229064131082    0.0000000000000000    0.0000000000000000
   -1.7859114532065541    3.0932893747718069    0.0000000000000000
    0.0000000000000000    0.0000000000000000   25.4665562469244904
   H    N    O    Y 
    1    2    2    2
Direct
    0.6666669847440474    0.3333329859851447    0.3534046736722363     H1
    0.0000000000000000    0.0000000000000000    0.4893177615079752     N1
    0.3333329854322145    0.6666669831836742    0.5943226957549315     N2
    0.3333329854322145    0.6666669831836742    0.6465953263277637     O1
    0.6666669847440474    0.3333329859851447    0.3921178474820399     O2
    0.3333329854322145    0.6666669831836742    0.4432152386164667     Y1
    0.6666669847440474    0.3333329859851447    0.5541403806086510     Y2
