Sc-Sc-N-OCl-Cl
   1.000
    3.3097584209016859    0.0000000000000000    0.0000000000000000
   -1.6548792104508430    2.8663348728896638    0.0000000000000000
    0.0000000000000000    0.0000000000000000   27.0918019816265350
   Cl   N    O    Sc
    2    1    1    2
Direct
    0.3333329854322145    0.6666669831836742    0.6677961840226156    Cl1
    0.6666669847440473    0.3333329859851446    0.3322038159773844    Cl2
    0.0000000000000000    0.0000000000000000    0.4337070731137105     N1
    0.3333329854322145    0.6666669831836742    0.5178550977329373     O1
    0.3333329854322145    0.6666669831836742    0.3968054522803329    Sc1
    0.6666669847440473    0.3333329859851446    0.4933130167360747    Sc2
