Y-Y-N-NCO-O
   1.000
    3.5732147025481122    0.0000000000000000    0.0000000000000000
   -1.7866073512740561    3.0944947055778713    0.0000000000000000
    0.0000000000000000    0.0000000000000000   25.4532829086984194
   C    N    O    Y 
    1    2    2    2
Direct
    0.3333329854322146    0.6666669831836743    0.5990354226452720     C1
    0.0000000000000000    0.0000000000000000    0.4495218195629636     N1
    0.3333329854322146    0.6666669831836743    0.5501376407004860     N2
    0.3333329854322146    0.6666669831836743    0.6464110334103763     O1
    0.6666669847440474    0.3333329859851447    0.3535889665896236     O2
    0.3333329854322146    0.6666669831836743    0.3810743851135375     Y1
    0.6666669847440474    0.3333329859851447    0.4925072193998651     Y2
