Hf-Hf-C-NO-Cl
   1.000
    3.3940494352651553    0.0000000000000000    0.0000000000000000
   -1.6970247176325777    2.9393330326323057    0.0000000000000000
    0.0000000000000000    0.0000000000000000   24.6146811255025391
   C    Cl   Hf   N    O 
    1    1    2    1    1
Direct
    0.0000000000000000    0.0000000000000000    0.4830770142917360     C1
    0.6666669847440474    0.3333329859851445    0.3656354495965974    Cl1
    0.3333329854322145    0.6666669831836742    0.4386365173142590    Hf1
    0.6666669847440474    0.3333329859851445    0.5418021771744682    Hf2
    0.3333329854322145    0.6666669831836742    0.5796822339639460     N1
    0.3333329854322145    0.6666669831836742    0.6343645504034026     O1
