Hf-Hf-N-F-H
   1.000
    3.3109829136284312    0.0000000000000000    0.0000000000000000
   -1.6554914568142156    2.8673953146961657    0.0000000000000000
    0.0000000000000000    0.0000000000000000   22.6125501471973607
   F    H    Hf   N 
    1    1    2    1
Direct
    0.3333329854322145    0.6666669831836742    0.6019909324063799     F1
    0.6666669847440474    0.3333329859851446    0.3980090675936201     H1
    0.3333329854322145    0.6666669831836742    0.4419616206425757    Hf1
    0.6666669847440474    0.3333329859851446    0.5430210490386433    Hf2
    0.0000000000000000    0.0000000000000000    0.4948182131793453     N1
