Hf-Hf-N-SCN-Br
   1.000
    3.4993468642866494    0.0000000000000000    0.0000000000000000
   -1.7496734321433247    3.0305232811242946    0.0000000000000000
    0.0000000000000000    0.0000000000000000   26.5973908704839701
   Br   C    Hf   N    S 
    1    1    2    2    1
Direct
    0.6666669847440474    0.3333329859851445    0.3383790554429008    Br1
    0.3333329854322145    0.6666669831836742    0.6168705811632571     C1
    0.3333329854322145    0.6666669831836742    0.4107494031650906    Hf1
    0.6666669847440474    0.3333329859851445    0.4933261707188058    Hf2
    0.0000000000000000    0.0000000000000000    0.4487475226554825     N1
    0.3333329854322145    0.6666669831836742    0.6616209445570993     N2
    0.3333329854322145    0.6666669831836742    0.5531984450886120     S1
