 Y-Y-C-O-Cl                             
   1.0000000000000000     
     3.6044433284380624    0.0000000000000001   -0.0000000000000000
    -1.8022216642190312    3.1215394889432613   -0.0000000000000000
     0.0000000000000015    0.0000000000000028   26.8294781276860697
   C    Cl   O    Y 
     1     1     1     2
Direct
 -0.0000000000000000  0.0000000000000000  0.5110395431058931
  0.6666669847440474  0.3333329859851446  0.3956431924633678
  0.3333329854322145  0.6666669831836742  0.6045324264008465
  0.3333329854322145  0.6666669831836742  0.4629080391955570
  0.6666669847440474  0.3333329859851446  0.5787168899005014

  0.00000000E+00  0.00000000E+00  0.00000000E+00
  0.00000000E+00  0.00000000E+00  0.00000000E+00
  0.00000000E+00  0.00000000E+00  0.00000000E+00
  0.00000000E+00  0.00000000E+00  0.00000000E+00
  0.00000000E+00  0.00000000E+00  0.00000000E+00
