Y-Y-N-SCN-Cl
   1.000
    3.6835275006439656    0.0000000000000000    0.0000000000000000
   -1.8417637503219828    3.1900283911182856    0.0000000000000000
    0.0000000000000000    0.0000000000000000   26.9322629631902402
   C    Cl   N    S    Y 
    1    1    2    1    2
Direct
    0.3333329854322145    0.6666669831836742    0.6216416520875676     C1
    0.6666669847440475    0.3333329859851446    0.3341716963145941    Cl1
    0.0000000000000000    0.0000000000000000    0.4454505660615792     N1
    0.3333329854322145    0.6666669831836742    0.6658283036854060     N2
    0.3333329854322145    0.6666669831836742    0.5592877948556007     S1
    0.3333329854322145    0.6666669831836742    0.3992307390510585     Y1
    0.6666669847440475    0.3333329859851446    0.4954274125359052     Y2
