Y-Y-C-OCl-H
   1.000
    3.7527074023297291    0.0000000000000000    0.0000000000000000
   -1.8763537011648646    3.2499399433751512    0.0000000000000000
    0.0000000000000000    0.0000000000000000   24.0190705152220403
   C    Cl   H    O    Y 
    1    1    1    1    2
Direct
    0.0000000000000000    0.0000000000000000    0.4428172933375532     C1
    0.3333329854322145    0.6666669831836742    0.6252977402145405    Cl1
    0.6666669847440474    0.3333329859851446    0.3747022597854596     H1
    0.3333329854322145    0.6666669831836742    0.5149372831326955     O1
    0.3333329854322145    0.6666669831836742    0.4106595214692249     Y1
    0.6666669847440474    0.3333329859851446    0.5418955771614540     Y2
