Hf-Hf-C-OCl-OCl
   1.000
    3.2584328904128865    0.0000000000000000    0.0000000000000000
   -1.6292164452064433    2.8218856596055346    0.0000000000000000
    0.0000000000000000    0.0000000000000000   29.9410743453219510
   C    Cl   Hf   O 
    1    2    2    2
Direct
    0.0000000000000000    0.0000000000000000    0.5000000293858675     C1
    0.3333329854322145    0.6666669831836742    0.6994095837644457    Cl1
    0.6666669847440474    0.3333329859851446    0.3005904162355543    Cl2
    0.3333329854322145    0.6666669831836742    0.4532445382634086    Hf1
    0.6666669847440474    0.3333329859851446    0.5467554612979961    Hf2
    0.3333329854322145    0.6666669831836742    0.5764956313456062     O1
    0.6666669847440474    0.3333329859851446    0.4235043686544011     O2
