Y-Y-C-PO-H
   1.000
    3.6056028297072160    0.0000000000000000    0.0000000000000000
   -1.8028014148536080    3.1225436465078831    0.0000000000000000
    0.0000000000000000    0.0000000000000000   25.3906708797485550
   C    H    O    P    Y 
    1    1    1    1    2
Direct
    0.0000000000000000    0.0000000000000000    0.4498110432964360     C1
    0.6666669847440473    0.3333329859851446    0.3544608979662032     H1
    0.3333329854322145    0.6666669831836742    0.6455391020337968     O1
    0.3333329854322145    0.6666669831836742    0.5865621186908005     P1
    0.3333329854322145    0.6666669831836742    0.3953477989326536     Y1
    0.6666669847440473    0.3333329859851446    0.5024199438161757     Y2
