Ti-Ti-C-OCl-SCN
   1.000
    3.1701963917000948    0.0000000000000000    0.0000000000000000
   -1.5850981958500474    2.7454706101977338    0.0000000000000000
    0.0000000000000000    0.0000000000000000   29.2052252516120383
   C    Cl   N    O    S    Ti
    2    1    1    1    1    2
Direct
    0.0000000000000000    0.0000000000000000    0.4990373869926329     C1
    0.6666669847440474    0.3333329859851446    0.3489470191258618     C2
    0.3333329854322146    0.6666669831836743    0.6918359669387166    Cl1
    0.6666669847440474    0.3333329859851446    0.3081640330612833     N1
    0.3333329854322146    0.6666669831836743    0.5732181967595724     O1
    0.6666669847440474    0.3333329859851446    0.4062734088854338     S1
    0.3333329854322146    0.6666669831836743    0.4609175116820129    Ti1
    0.6666669847440474    0.3333329859851446    0.5450476740371422    Ti2
