Ti-Ti-N-PO-Cl
   1.000
    3.1811937451935557    0.0000000000000000    0.0000000000000000
   -1.5905968725967778    2.7549945976935333    0.0000000000000000
    0.0000000000000000    0.0000000000000000   25.1460909216199369
   Cl   N    O    P    Ti
    1    1    1    1    2
Direct
    0.6666669847440474    0.3333329859851446    0.3579085126214206    Cl1
    0.0000000000000000    0.0000000000000000    0.4663377347787732     N1
    0.3333329854322145    0.6666669831836742    0.6420914873785794     O1
    0.3333329854322145    0.6666669831836742    0.5827466972096591     P1
    0.3333329854322145    0.6666669831836742    0.4250720168495704    Ti1
    0.6666669847440474    0.3333329859851446    0.5094023385292928    Ti2
