Y-Y-C-OCl-Cl
   1.000
    3.7760985035116392    0.0000000000000000    0.0000000000000000
   -1.8880492517558196    3.2701972312509997    0.0000000000000000
    0.0000000000000000    0.0000000000000000   24.9012320642128380
   C    Cl   O    Y 
    1    2    1    2
Direct
    0.0000000000000000    0.0000000000000000    0.4685183633868555     C1
    0.3333329854322145    0.6666669831836742    0.6385721004972089    Cl1
    0.6666669847440474    0.3333329859851446    0.3614278995027912    Cl2
    0.3333329854322145    0.6666669831836742    0.5326287345234936     O1
    0.3333329854322145    0.6666669831836742    0.4331501188553367     Y1
    0.6666669847440474    0.3333329859851446    0.5580782273166300     Y2
