Hf-Hf-C-NCO-Cl
   1.000
    3.3645634515915988    0.0000000000000000    0.0000000000000000
   -1.6822817257957994    2.9137974217045861    0.0000000000000000
    0.0000000000000000    0.0000000000000000   26.0422955655490576
   C    Cl   Hf   N    O 
    2    1    2    1    1
Direct
    0.0000000000000000    0.0000000000000000    0.4599908352443428     C1
    0.3333329854322145    0.6666669831836741    0.6081305550838683     C2
    0.6666669847440474    0.3333329859851446    0.3455916540593280    Cl1
    0.3333329854322145    0.6666669831836741    0.4145074192015941    Hf1
    0.6666669847440474    0.3333329859851446    0.5054609447558314    Hf2
    0.3333329854322145    0.6666669831836741    0.5601565984041259     N1
    0.3333329854322145    0.6666669831836741    0.6544083459406720     O1
