 Y-Y-C-F-H                              
   1.0000000000000000     
     3.5819587364600904    0.0000000000000000    0.0000000000000000
    -1.7909793682300454    3.1020672610861793    0.0000000000000000
     0.0000000000000017    0.0000000000000028   27.1673620994009219
   C    F    H    Y 
     1     1     1     2
Direct
  0.0000000000000000  0.0000000000000000  0.4981147606697714
  0.3333329854322145  0.6666669831836742  0.5915953650076603
  0.6666669847440474  0.3333329859851446  0.4081656616669093
  0.3333329854322145  0.6666669831836742  0.4478745798543902
  0.6666669847440474  0.3333329859851446  0.5486826986320593

  0.00000000E+00  0.00000000E+00  0.00000000E+00
  0.00000000E+00  0.00000000E+00  0.00000000E+00
  0.00000000E+00  0.00000000E+00  0.00000000E+00
  0.00000000E+00  0.00000000E+00  0.00000000E+00
  0.00000000E+00  0.00000000E+00  0.00000000E+00
