Zr-Zr-C-Br-Br
   1.000
    3.5200473297278929    0.0000000000000000    0.0000000000000000
   -1.7600236648639465    3.0484504100637668    0.0000000000000000
    0.0000000000000000    0.0000000000000000   24.2745647350519640
   Br   C    Zr
    2    1    2
Direct
    0.3333329854322145    0.6666669831836741    0.6292415498184325    Br1
    0.6666669847440474    0.3333329859851446    0.3707584501815675    Br2
    0.0000000000000000    0.0000000000000000    0.5000000310581043     C1
    0.3333329854322145    0.6666669831836741    0.4513074201656179    Zr1
    0.6666669847440474    0.3333329859851446    0.5486925793708203    Zr2
