Hf-Hf-N-SCN-SCN
   1.000
    3.5010134758489948    0.0000000000000000    0.0000000000000000
   -1.7505067379244974    3.0319666090740327    0.0000000000000000
    0.0000000000000000    0.0000000000000000   29.2443318864709809
   C    Hf   N    S 
    2    2    3    2
Direct
    0.3333329854322146    0.6666669831836743    0.6515433710603076     C1
    0.6666669847440474    0.3333329859851446    0.3484566293286655     C2
    0.3333329854322146    0.6666669831836743    0.4615022500128073    Hf1
    0.6666669847440474    0.3333329859851446    0.5384977499871857    Hf2
    0.0000000000000000    0.0000000000000000    0.5000000262556697     N1
    0.3333329854322146    0.6666669831836743    0.6922480556253165     N2
    0.6666669847440474    0.3333329859851446    0.3077519443746835     N3
    0.3333329854322146    0.6666669831836743    0.5935556914545340     S1
    0.6666669847440474    0.3333329859851446    0.4064443089344387     S2
