Hf-Hf-C-OCl-H
   1.000
    3.2411389608422576    0.0000000000000000    0.0000000000000000
   -1.6205694804211288    2.8069086772875691    0.0000000000000000
    0.0000000000000000    0.0000000000000000   26.1986791639608612
   C    Cl   H    Hf   O 
    1    1    1    2    1
Direct
    0.0000000000000000    0.0000000000000000    0.4306326675225655     C1
    0.3333329854322144    0.6666669831836741    0.6564712311000593    Cl1
    0.6666669847440474    0.3333329859851445    0.3435287688999407     H1
    0.3333329854322144    0.6666669831836741    0.3831703563503338    Hf1
    0.6666669847440474    0.3333329859851445    0.4848648829621577    Hf2
    0.3333329854322144    0.6666669831836741    0.5200533042437125     O1
