Y-Y-N-SCN-SCN
   1.000
    3.7448832925000186    0.0000000000000000    0.0000000000000000
   -1.8724416462500093    3.2431640655831444    0.0000000000000000
    0.0000000000000000    0.0000000000000000   29.7063919376468561
   C    N    S    Y 
    2    3    2    2
Direct
    0.3333329854322145    0.6666669831836742    0.6569675832045996     C1
    0.6666669847440474    0.3333329859851446    0.3430324171300747     C2
    0.0000000000000000    0.0000000000000000    0.5000000225905024     N1
    0.3333329854322145    0.6666669831836742    0.6970349001356062     N2
    0.6666669847440474    0.3333329859851446    0.3029650998643937     N3
    0.3333329854322145    0.6666669831836742    0.6004175543952583     S1
    0.6666669847440474    0.3333329859851446    0.3995824459394157     S2
    0.3333329854322145    0.6666669831836742    0.4568552678793723     Y1
    0.6666669847440474    0.3333329859851446    0.5431447321206220     Y2
