Zr-Zr-C-OCl-SCN
   1.000
    3.6371274777107390    0.0000000000000000    0.0000000000000000
   -1.8185637388553695    3.1498447925000654    0.0000000000000000
    0.0000000000000000    0.0000000000000000   27.2601674921529948
   C    Cl   N    O    S    Zr
    2    1    1    1    1    2
Direct
    0.0000000000000000    0.0000000000000000    0.5315766917444329     C1
    0.6666669847440474    0.3333329859851446    0.3738373854447214     C2
    0.3333329854322145    0.6666669831836742    0.6698479566352369    Cl1
    0.6666669847440474    0.3333329859851446    0.3301520433647631     N1
    0.3333329854322145    0.6666669831836742    0.5775680026913819     O1
    0.6666669847440474    0.3333329859851446    0.4353350305531731     S1
    0.3333329854322145    0.6666669831836742    0.4981048549553930    Zr1
    0.6666669847440474    0.3333329859851446    0.5927342446267628    Zr2
