Y-Y-N-F-F
   1.000
    3.5074860134364281    0.0000000000000000    0.0000000000000000
   -1.7537430067182140    3.0375719910547332    0.0000000000000000
    0.0000000000000000    0.0000000000000000   23.1484488163071624
   F    N    Y 
    2    1    2
Direct
    0.3333329854322144    0.6666669831836741    0.6112050500049119     F1
    0.6666669847440474    0.3333329859851446    0.3887949499950881     F2
    0.0000000000000000    0.0000000000000000    0.5000000328027013     N1
    0.3333329854322144    0.6666669831836741    0.4426020645070203     Y1
    0.6666669847440474    0.3333329859851446    0.5573979350033783     Y2
