Y-Y-C-NO-O
   1.000
    3.6141618301383032    0.0000000000000000    0.0000000000000000
   -1.8070809150691516    3.1299559582985488    0.0000000000000000
    0.0000000000000000    0.0000000000000000   24.4088230815347380
   C    N    O    Y 
    1    1    2    2
Direct
    0.0000000000000000    0.0000000000000000    0.4722979971202960     C1
    0.3333329854322145    0.6666669831836741    0.5788345482037250     N1
    0.3333329854322145    0.6666669831836741    0.6312808704485020     O1
    0.6666669847440474    0.3333329859851446    0.3687191295514979     O2
    0.3333329854322145    0.6666669831836741    0.3969398445431216     Y1
    0.6666669847440474    0.3333329859851446    0.5215316732891444     Y2
