Ti-Ti-N-SCN-OH
   1.000
    3.2438590085613241    0.0000000000000000    0.0000000000000000
   -1.6219295042806621    2.8092643077174366    0.0000000000000000
    0.0000000000000000    0.0000000000000000   26.7201757669980147
   C    H    N    O    S    Ti
    1    1    2    1    1    2
Direct
    0.3333329854322146    0.6666669831836742    0.6186134852313832     C1
    0.6666669847440473    0.3333329859851446    0.3368241316404762     H1
    0.0000000000000000    0.0000000000000000    0.4563058004105996     N1
    0.3333329854322146    0.6666669831836742    0.6631758683595238     N2
    0.6666669847440473    0.3333329859851446    0.3737130337482585     O1
    0.3333329854322146    0.6666669831836742    0.5558924368194232     S1
    0.3333329854322146    0.6666669831836742    0.4194562084721398    Ti1
    0.6666669847440473    0.3333329859851446    0.4974238338394525    Ti2
