Zr-Zr-C-NCO-Br
   1.000
    3.4482590616466804    0.0000000000000000    0.0000000000000000
   -1.7241295308233402    2.9862799462016949    0.0000000000000000
    0.0000000000000000    0.0000000000000000   26.2780544117132173
   Br   C    N    O    Zr
    1    2    1    1    2
Direct
    0.6666669847440475    0.3333329859851446    0.3424911090825783    Br1
    0.0000000000000000    0.0000000000000000    0.4638818926193308     C1
    0.3333329854322145    0.6666669831836741    0.6116356839328519     C2
    0.3333329854322145    0.6666669831836741    0.5641644429142959     N1
    0.3333329854322145    0.6666669831836741    0.6575088909174216     O1
    0.3333329854322145    0.6666669831836741    0.4177309669393803    Zr1
    0.6666669847440475    0.3333329859851446    0.5095626168184186    Zr2
