Ti-Ti-N-OCl-Cl
   1.000
    3.0937870165618890    0.0000000000000000    0.0000000000000000
   -1.5468935082809445    2.6792981502288638    0.0000000000000000
    0.0000000000000000    0.0000000000000000   27.1591211973646658
   Cl   N    O    Ti
    2    1    1    2
Direct
    0.3333329854322145    0.6666669831836742    0.6686196164228871    Cl1
    0.6666669847440474    0.3333329859851446    0.3313803835771129    Cl2
    0.0000000000000000    0.0000000000000000    0.4357276045726457     N1
    0.3333329854322145    0.6666669831836742    0.5151827839075539     O1
    0.3333329854322145    0.6666669831836742    0.3944563388886125    Ti1
    0.6666669847440474    0.3333329859851446    0.4823484711890149    Ti2
