Sc-Sc-N-NO-F
   1.000
    3.3312397523461934    0.0000000000000000    0.0000000000000000
   -1.6656198761730967    2.8849382516248143    0.0000000000000000
    0.0000000000000000    0.0000000000000000   24.0377181433896858
   F    N    O    Sc
    1    2    1    2
Direct
    0.6666669847440474    0.3333329859851446    0.3744115787660560     F1
    0.0000000000000000    0.0000000000000000    0.4664991022554563     N1
    0.3333329854322145    0.6666669831836742    0.5705149558296755     N2
    0.3333329854322145    0.6666669831836742    0.6255884212339440     O1
    0.3333329854322145    0.6666669831836742    0.4221852820400482    Sc1
    0.6666669847440474    0.3333329859851446    0.5297417222769474    Sc2
