Y-Y-N-CN-OCN
   1.000
    3.5733100925163170    0.0000000000000000    0.0000000000000000
   -1.7866550462581585    3.0945773157141621    0.0000000000000000
    0.0000000000000000    0.0000000000000000   27.1769751243340565
   C    N    O    Y 
    2    3    1    2
Direct
    0.3333329854322145    0.6666669831836741    0.6246458442766726     C1
    0.6666669847440474    0.3333329859851446    0.3749056578052192     C2
    0.0000000000000000    0.0000000000000000    0.5188144153871304     N1
    0.3333329854322145    0.6666669831836741    0.6688373169263614     N2
    0.6666669847440474    0.3333329859851446    0.3311626830736386     N3
    0.6666669847440474    0.3333329859851446    0.4240449148105517     O1
    0.3333329854322145    0.6666669831836741    0.4722460606384721     Y1
    0.6666669847440474    0.3333329859851446    0.5698373810915311     Y2
