Zr-Zr-N-NCS-OH
   1.000
    3.3797620294591924    0.0000000000000000    0.0000000000000000
   -1.6898810147295962    2.9269597762448059    0.0000000000000000
    0.0000000000000000    0.0000000000000000   26.8432898980399699
   C    H    N    O    S    Zr
    1    1    2    1    1    2
Direct
    0.3333329854322145    0.6666669831836743    0.6068661429276938     C1
    0.6666669847440474    0.3333329859851446    0.3352793206117837     H1
    0.0000000000000000    0.0000000000000000    0.4640393937090642     N1
    0.3333329854322145    0.6666669831836743    0.5601297012598414     N2
    0.6666669847440474    0.3333329859851446    0.3721032920326868     O1
    0.3333329854322145    0.6666669831836743    0.6647206793882163     S1
    0.3333329854322145    0.6666669831836743    0.4213381417709408    Zr1
    0.6666669847440474    0.3333329859851446    0.5085028190229834    Zr2
