Zr-Zr-C-SCN-SCN
   1.000
    3.5746120458887929    0.0000000000000000    0.0000000000000000
   -1.7873060229443964    3.0957048404104759    0.0000000000000000
    0.0000000000000000    0.0000000000000000   29.4370693636330003
   C    N    S    Zr
    3    2    2    2
Direct
    0.0000000000000000    0.0000000000000000    0.5000000250207296     C1
    0.3333329854322145    0.6666669831836742    0.6538101773988336     C2
    0.6666669847440474    0.3333329859851446    0.3461898229718434     C3
    0.3333329854322145    0.6666669831836742    0.6942630433476935     N1
    0.6666669847440474    0.3333329859851446    0.3057369566523065     N2
    0.3333329854322145    0.6666669831836742    0.5966853131471425     S1
    0.6666669847440474    0.3333329859851446    0.4033146872235351     S2
    0.3333329854322145    0.6666669831836742    0.4600701572772962    Zr1
    0.6666669847440474    0.3333329859851446    0.5399298427226971    Zr2
