Hf-Hf-N-NCO-O
   1.000
    3.2324140023616814    0.0000000000000000    0.0000000000000000
   -1.6162070011808407    2.7993526415935910    0.0000000000000000
    0.0000000000000000    0.0000000000000000   25.4259654654501084
   C    Hf   N    O 
    1    2    2    2
Direct
    0.3333329854322145    0.6666669831836742    0.5986301066365087     C1
    0.3333329854322145    0.6666669831836742    0.3923132741833815    Hf1
    0.6666669847440474    0.3333329859851446    0.4932775493635607    Hf2
    0.0000000000000000    0.0000000000000000    0.4424732101002137     N1
    0.3333329854322145    0.6666669831836742    0.5493656493791270     N2
    0.3333329854322145    0.6666669831836742    0.6460311404013512     O1
    0.6666669847440474    0.3333329859851446    0.3539688595986488     O2
