Y-Y-N-PO-F
   1.000
    3.5109972002933447    0.0000000000000000    0.0000000000000000
   -1.7554986001466724    3.0406127680734358    0.0000000000000000
    0.0000000000000000    0.0000000000000000   25.4526410505788405
   F    N    O    P    Y 
    1    1    1    1    2
Direct
    0.6666669847440474    0.3333329859851446    0.3535978833047394     F1
    0.0000000000000000    0.0000000000000000    0.4508368344928732     N1
    0.3333329854322145    0.6666669831836742    0.6464021166952606     O1
    0.3333329854322145    0.6666669831836742    0.5876085254580533     P1
    0.3333329854322145    0.6666669831836742    0.4015071607042631     Y1
    0.6666669847440474    0.3333329859851446    0.5058976306197204     Y2
