Y-Y-C-O-F
   1.000
    3.5772196732225017    0.0000000000000000    0.0000000000000000
   -1.7886098366112508    3.0979631119336748    0.0000000000000000
    0.0000000000000000    0.0000000000000000   23.0439185544314569
   C    F    O    Y 
    1    1    1    2
Direct
    0.0000000000000000    0.0000000000000000    0.4986557025556114     C1
    0.6666669847440474    0.3333329859851445    0.3905585753022572     F1
    0.3333329854322145    0.6666669831836741    0.6094414246977428     O1
    0.3333329854322145    0.6666669831836741    0.4427283746361266     Y1
    0.6666669847440474    0.3333329859851445    0.5782960095896149     Y2
